Cu40 N240
1.0
  13.4680000000000000    0.0000000000000000    0.0000000000000008
  -0.0000000000000009   15.4100000000000001    0.0000000000000009
   0.0000000000000000    0.0000000000000000   18.1600000000000001
Cu N
40 240
direct
   0.6032999999999999    0.1500000000000000    0.2098500000000000 Cu
   0.8967000000000001    0.0500000000000000    0.4598500000000000 Cu
   0.3967000000000000    0.0500000000000000    0.2901500000000000 Cu
   0.1033000000000000    0.1500000000000000    0.0401500000000000 Cu
   0.6032999999999999    0.3500000000000000    0.2098500000000000 Cu
   0.8967000000000001    0.2500000000000000    0.4598500000000000 Cu
   0.3967000000000000    0.2500000000000000    0.2901500000000000 Cu
   0.1033000000000000    0.3500000000000000    0.0401500000000000 Cu
   0.6032999999999999    0.5500000000000000    0.2098500000000000 Cu
   0.8967000000000001    0.4500000000000000    0.4598500000000000 Cu
   0.3967000000000000    0.4500000000000000    0.2901500000000000 Cu
   0.1033000000000000    0.5500000000000000    0.0401500000000000 Cu
   0.6032999999999999    0.7500000000000000    0.2098500000000000 Cu
   0.8967000000000001    0.6500000000000000    0.4598500000000000 Cu
   0.3967000000000000    0.6500000000000000    0.2901500000000000 Cu
   0.1033000000000000    0.7500000000000000    0.0401500000000000 Cu
   0.6032999999999999    0.9500000000000000    0.2098500000000000 Cu
   0.8967000000000001    0.8500000000000000    0.4598500000000000 Cu
   0.3967000000000000    0.8500000000000000    0.2901500000000000 Cu
   0.1033000000000000    0.9500000000000000    0.0401500000000000 Cu
   0.6032999999999999    0.1500000000000000    0.7098500000000000 Cu
   0.8967000000000001    0.0500000000000000    0.9598500000000000 Cu
   0.3967000000000000    0.0500000000000000    0.7901500000000000 Cu
   0.1033000000000000    0.1500000000000000    0.5401500000000000 Cu
   0.6032999999999999    0.3500000000000000    0.7098500000000000 Cu
   0.8967000000000001    0.2500000000000000    0.9598500000000000 Cu
   0.3967000000000000    0.2500000000000000    0.7901500000000000 Cu
   0.1033000000000000    0.3500000000000000    0.5401500000000000 Cu
   0.6032999999999999    0.5500000000000000    0.7098500000000000 Cu
   0.8967000000000001    0.4500000000000000    0.9598500000000000 Cu
   0.3967000000000000    0.4500000000000000    0.7901500000000000 Cu
   0.1033000000000000    0.5500000000000000    0.5401500000000000 Cu
   0.6032999999999999    0.7500000000000000    0.7098500000000000 Cu
   0.8967000000000001    0.6500000000000000    0.9598500000000000 Cu
   0.3967000000000000    0.6500000000000000    0.7901500000000000 Cu
   0.1033000000000000    0.7500000000000000    0.5401500000000000 Cu
   0.6032999999999999    0.9500000000000000    0.7098500000000000 Cu
   0.8967000000000001    0.8500000000000000    0.9598500000000000 Cu
   0.3967000000000000    0.8500000000000000    0.7901500000000000 Cu
   0.1033000000000000    0.9500000000000000    0.5401500000000000 Cu
   0.8120000000000001    0.0500000000000000    0.3339500000000000 N
   0.7466000000000000    0.0500000000000000    0.2947000000000000 N
   0.6780000000000000    0.0500000000000000    0.2512500000000000 N
   0.5221000000000000    0.0500000000000000    0.1736500000000000 N
   0.4696000000000000    0.0500000000000000    0.1199000000000000 N
   0.4188000000000000    0.0500000000000000    0.0729000000000000 N
   0.6879999999999999    0.1500000000000000    0.5839500000000000 N
   0.7534000000000000    0.1500000000000000    0.5447000000000000 N
   0.8220000000000000    0.1500000000000000    0.5012500000000000 N
   0.9779000000000000    0.1500000000000000    0.4236500000000000 N
   0.0304000000000000    0.1500000000000000    0.3699000000000000 N
   0.0811999999999999    0.1500000000000000    0.3229000000000000 N
   0.1880000000000000    0.1500000000000000    0.1660500000000000 N
   0.2534000000000000    0.1500000000000000    0.2053000000000000 N
   0.3220000000000000    0.1500000000000000    0.2487500000000000 N
   0.4779000000000000    0.1500000000000000    0.3263500000000000 N
   0.5304000000000000    0.1500000000000000    0.3801000000000000 N
   0.5812000000000000    0.1500000000000000    0.4271000000000000 N
   0.3120000000000000    0.0500000000000000    0.9160500000000000 N
   0.2466000000000000    0.0500000000000000    0.9553000000000000 N
   0.1780000000000000    0.0500000000000000    0.9987500000000000 N
   0.0221000000000000    0.0500000000000000    0.0763500000000000 N
   0.9696000000000000    0.0500000000000000    0.1301000000000000 N
   0.9188000000000001    0.0500000000000000    0.1771000000000000 N
   0.8120000000000001    0.2500000000000000    0.3339500000000000 N
   0.7466000000000000    0.2500000000000000    0.2947000000000000 N
   0.6780000000000000    0.2500000000000000    0.2512500000000000 N
   0.5221000000000000    0.2500000000000000    0.1736500000000000 N
   0.4696000000000000    0.2500000000000000    0.1199000000000000 N
   0.4188000000000000    0.2500000000000000    0.0729000000000000 N
   0.6879999999999999    0.3500000000000000    0.5839500000000000 N
   0.7534000000000000    0.3500000000000000    0.5447000000000000 N
   0.8220000000000000    0.3500000000000000    0.5012500000000000 N
   0.9779000000000000    0.3500000000000000    0.4236500000000000 N
   0.0304000000000000    0.3500000000000000    0.3699000000000000 N
   0.0811999999999999    0.3500000000000000    0.3229000000000000 N
   0.1880000000000000    0.3500000000000000    0.1660500000000000 N
   0.2534000000000000    0.3500000000000000    0.2053000000000000 N
   0.3220000000000000    0.3500000000000000    0.2487500000000000 N
   0.4779000000000000    0.3500000000000000    0.3263500000000000 N
   0.5304000000000000    0.3500000000000000    0.3801000000000000 N
   0.5812000000000000    0.3500000000000000    0.4271000000000000 N
   0.3120000000000000    0.2500000000000000    0.9160500000000000 N
   0.2466000000000000    0.2500000000000000    0.9553000000000000 N
   0.1780000000000000    0.2500000000000000    0.9987500000000000 N
   0.0221000000000000    0.2500000000000000    0.0763500000000000 N
   0.9696000000000000    0.2500000000000000    0.1301000000000000 N
   0.9188000000000001    0.2500000000000000    0.1771000000000000 N
   0.8120000000000001    0.4500000000000000    0.3339500000000000 N
   0.7466000000000000    0.4500000000000000    0.2947000000000000 N
   0.6780000000000000    0.4500000000000000    0.2512500000000000 N
   0.5221000000000000    0.4500000000000000    0.1736500000000000 N
   0.4696000000000000    0.4500000000000000    0.1199000000000000 N
   0.4188000000000000    0.4500000000000000    0.0729000000000000 N
   0.6879999999999999    0.5500000000000000    0.5839500000000000 N
   0.7534000000000000    0.5500000000000000    0.5447000000000000 N
   0.8220000000000000    0.5500000000000000    0.5012500000000000 N
   0.9779000000000000    0.5500000000000000    0.4236500000000000 N
   0.0304000000000000    0.5500000000000000    0.3699000000000000 N
   0.0811999999999999    0.5500000000000000    0.3229000000000000 N
   0.1880000000000000    0.5500000000000000    0.1660500000000000 N
   0.2534000000000000    0.5500000000000000    0.2053000000000000 N
   0.3220000000000000    0.5500000000000000    0.2487500000000000 N
   0.4779000000000000    0.5500000000000000    0.3263500000000000 N
   0.5304000000000000    0.5500000000000000    0.3801000000000000 N
   0.5812000000000000    0.5500000000000000    0.4271000000000000 N
   0.3120000000000000    0.4500000000000000    0.9160500000000000 N
   0.2466000000000000    0.4500000000000000    0.9553000000000000 N
   0.1780000000000000    0.4500000000000000    0.9987500000000000 N
   0.0221000000000000    0.4500000000000000    0.0763500000000000 N
   0.9696000000000000    0.4500000000000000    0.1301000000000000 N
   0.9188000000000001    0.4500000000000000    0.1771000000000000 N
   0.8120000000000001    0.6500000000000000    0.3339500000000000 N
   0.7466000000000000    0.6500000000000000    0.2947000000000000 N
   0.6780000000000000    0.6500000000000000    0.2512500000000000 N
   0.5221000000000000    0.6500000000000000    0.1736500000000000 N
   0.4696000000000000    0.6500000000000000    0.1199000000000000 N
   0.4188000000000000    0.6500000000000000    0.0729000000000000 N
   0.6879999999999999    0.7500000000000000    0.5839500000000000 N
   0.7534000000000000    0.7500000000000000    0.5447000000000000 N
   0.8220000000000000    0.7500000000000000    0.5012500000000000 N
   0.9779000000000000    0.7500000000000000    0.4236500000000000 N
   0.0304000000000000    0.7500000000000000    0.3699000000000000 N
   0.0811999999999999    0.7500000000000000    0.3229000000000000 N
   0.1880000000000000    0.7500000000000000    0.1660500000000000 N
   0.2534000000000000    0.7500000000000000    0.2053000000000000 N
   0.3220000000000000    0.7500000000000000    0.2487500000000000 N
   0.4779000000000000    0.7500000000000000    0.3263500000000000 N
   0.5304000000000000    0.7500000000000000    0.3801000000000000 N
   0.5812000000000000    0.7500000000000000    0.4271000000000000 N
   0.3120000000000000    0.6500000000000000    0.9160500000000000 N
   0.2466000000000000    0.6500000000000000    0.9553000000000000 N
   0.1780000000000000    0.6500000000000000    0.9987500000000000 N
   0.0221000000000000    0.6500000000000000    0.0763500000000000 N
   0.9696000000000000    0.6500000000000000    0.1301000000000000 N
   0.9188000000000001    0.6500000000000000    0.1771000000000000 N
   0.8120000000000001    0.8500000000000000    0.3339500000000000 N
   0.7466000000000000    0.8500000000000000    0.2947000000000000 N
   0.6780000000000000    0.8500000000000000    0.2512500000000000 N
   0.5221000000000000    0.8500000000000000    0.1736500000000000 N
   0.4696000000000000    0.8500000000000000    0.1199000000000000 N
   0.4188000000000000    0.8500000000000000    0.0729000000000000 N
   0.6879999999999999    0.9500000000000000    0.5839500000000000 N
   0.7534000000000000    0.9500000000000000    0.5447000000000000 N
   0.8220000000000000    0.9500000000000000    0.5012500000000000 N
   0.9779000000000000    0.9500000000000000    0.4236500000000000 N
   0.0304000000000000    0.9500000000000000    0.3699000000000000 N
   0.0811999999999999    0.9500000000000000    0.3229000000000000 N
   0.1880000000000000    0.9500000000000000    0.1660500000000000 N
   0.2534000000000000    0.9500000000000000    0.2053000000000000 N
   0.3220000000000000    0.9500000000000000    0.2487500000000000 N
   0.4779000000000000    0.9500000000000000    0.3263500000000000 N
   0.5304000000000000    0.9500000000000000    0.3801000000000000 N
   0.5812000000000000    0.9500000000000000    0.4271000000000000 N
   0.3120000000000000    0.8500000000000000    0.9160500000000000 N
   0.2466000000000000    0.8500000000000000    0.9553000000000000 N
   0.1780000000000000    0.8500000000000000    0.9987500000000000 N
   0.0221000000000000    0.8500000000000000    0.0763500000000000 N
   0.9696000000000000    0.8500000000000000    0.1301000000000000 N
   0.9188000000000001    0.8500000000000000    0.1771000000000000 N
   0.8120000000000001    0.0500000000000000    0.8339500000000000 N
   0.7466000000000000    0.0500000000000000    0.7947000000000000 N
   0.6780000000000000    0.0500000000000000    0.7512500000000000 N
   0.5221000000000000    0.0500000000000000    0.6736500000000000 N
   0.4696000000000000    0.0500000000000000    0.6199000000000000 N
   0.4188000000000000    0.0500000000000000    0.5729000000000000 N
   0.6879999999999999    0.1500000000000000    0.0839500000000000 N
   0.7534000000000000    0.1500000000000000    0.0447000000000000 N
   0.8220000000000000    0.1500000000000000    0.0012500000000000 N
   0.9779000000000000    0.1500000000000000    0.9236500000000000 N
   0.0304000000000000    0.1500000000000000    0.8699000000000000 N
   0.0811999999999999    0.1500000000000000    0.8229000000000000 N
   0.1880000000000000    0.1500000000000000    0.6660500000000000 N
   0.2534000000000000    0.1500000000000000    0.7053000000000000 N
   0.3220000000000000    0.1500000000000000    0.7487500000000000 N
   0.4779000000000000    0.1500000000000000    0.8263500000000000 N
   0.5304000000000000    0.1500000000000000    0.8801000000000000 N
   0.5812000000000000    0.1500000000000000    0.9271000000000000 N
   0.3120000000000000    0.0500000000000000    0.4160500000000000 N
   0.2466000000000000    0.0500000000000000    0.4553000000000000 N
   0.1780000000000000    0.0500000000000000    0.4987500000000000 N
   0.0221000000000000    0.0500000000000000    0.5763500000000000 N
   0.9696000000000000    0.0500000000000000    0.6301000000000000 N
   0.9188000000000001    0.0500000000000000    0.6771000000000000 N
   0.8120000000000001    0.2500000000000000    0.8339500000000000 N
   0.7466000000000000    0.2500000000000000    0.7947000000000000 N
   0.6780000000000000    0.2500000000000000    0.7512500000000000 N
   0.5221000000000000    0.2500000000000000    0.6736500000000000 N
   0.4696000000000000    0.2500000000000000    0.6199000000000000 N
   0.4188000000000000    0.2500000000000000    0.5729000000000000 N
   0.6879999999999999    0.3500000000000000    0.0839500000000000 N
   0.7534000000000000    0.3500000000000000    0.0447000000000000 N
   0.8220000000000000    0.3500000000000000    0.0012500000000000 N
   0.9779000000000000    0.3500000000000000    0.9236500000000000 N
   0.0304000000000000    0.3500000000000000    0.8699000000000000 N
   0.0811999999999999    0.3500000000000000    0.8229000000000000 N
   0.1880000000000000    0.3500000000000000    0.6660500000000000 N
   0.2534000000000000    0.3500000000000000    0.7053000000000000 N
   0.3220000000000000    0.3500000000000000    0.7487500000000000 N
   0.4779000000000000    0.3500000000000000    0.8263500000000000 N
   0.5304000000000000    0.3500000000000000    0.8801000000000000 N
   0.5812000000000000    0.3500000000000000    0.9271000000000000 N
   0.3120000000000000    0.2500000000000000    0.4160500000000000 N
   0.2466000000000000    0.2500000000000000    0.4553000000000000 N
   0.1780000000000000    0.2500000000000000    0.4987500000000000 N
   0.0221000000000000    0.2500000000000000    0.5763500000000000 N
   0.9696000000000000    0.2500000000000000    0.6301000000000000 N
   0.9188000000000001    0.2500000000000000    0.6771000000000000 N
   0.8120000000000001    0.4500000000000000    0.8339500000000000 N
   0.7466000000000000    0.4500000000000000    0.7947000000000000 N
   0.6780000000000000    0.4500000000000000    0.7512500000000000 N
   0.5221000000000000    0.4500000000000000    0.6736500000000000 N
   0.4696000000000000    0.4500000000000000    0.6199000000000000 N
   0.4188000000000000    0.4500000000000000    0.5729000000000000 N
   0.6879999999999999    0.5500000000000000    0.0839500000000000 N
   0.7534000000000000    0.5500000000000000    0.0447000000000000 N
   0.8220000000000000    0.5500000000000000    0.0012500000000000 N
   0.9779000000000000    0.5500000000000000    0.9236500000000000 N
   0.0304000000000000    0.5500000000000000    0.8699000000000000 N
   0.0811999999999999    0.5500000000000000    0.8229000000000000 N
   0.1880000000000000    0.5500000000000000    0.6660500000000000 N
   0.2534000000000000    0.5500000000000000    0.7053000000000000 N
   0.3220000000000000    0.5500000000000000    0.7487500000000000 N
   0.4779000000000000    0.5500000000000000    0.8263500000000000 N
   0.5304000000000000    0.5500000000000000    0.8801000000000000 N
   0.5812000000000000    0.5500000000000000    0.9271000000000000 N
   0.3120000000000000    0.4500000000000000    0.4160500000000000 N
   0.2466000000000000    0.4500000000000000    0.4553000000000000 N
   0.1780000000000000    0.4500000000000000    0.4987500000000000 N
   0.0221000000000000    0.4500000000000000    0.5763500000000000 N
   0.9696000000000000    0.4500000000000000    0.6301000000000000 N
   0.9188000000000001    0.4500000000000000    0.6771000000000000 N
   0.8120000000000001    0.6500000000000000    0.8339500000000000 N
   0.7466000000000000    0.6500000000000000    0.7947000000000000 N
   0.6780000000000000    0.6500000000000000    0.7512500000000000 N
   0.5221000000000000    0.6500000000000000    0.6736500000000000 N
   0.4696000000000000    0.6500000000000000    0.6199000000000000 N
   0.4188000000000000    0.6500000000000000    0.5729000000000000 N
   0.6879999999999999    0.7500000000000000    0.0839500000000000 N
   0.7534000000000000    0.7500000000000000    0.0447000000000000 N
   0.8220000000000000    0.7500000000000000    0.0012500000000000 N
   0.9779000000000000    0.7500000000000000    0.9236500000000000 N
   0.0304000000000000    0.7500000000000000    0.8699000000000000 N
   0.0811999999999999    0.7500000000000000    0.8229000000000000 N
   0.1880000000000000    0.7500000000000000    0.6660500000000000 N
   0.2534000000000000    0.7500000000000000    0.7053000000000000 N
   0.3220000000000000    0.7500000000000000    0.7487500000000000 N
   0.4779000000000000    0.7500000000000000    0.8263500000000000 N
   0.5304000000000000    0.7500000000000000    0.8801000000000000 N
   0.5812000000000000    0.7500000000000000    0.9271000000000000 N
   0.3120000000000000    0.6500000000000000    0.4160500000000000 N
   0.2466000000000000    0.6500000000000000    0.4553000000000000 N
   0.1780000000000000    0.6500000000000000    0.4987500000000000 N
   0.0221000000000000    0.6500000000000000    0.5763500000000000 N
   0.9696000000000000    0.6500000000000000    0.6301000000000000 N
   0.9188000000000001    0.6500000000000000    0.6771000000000000 N
   0.8120000000000001    0.8500000000000000    0.8339500000000000 N
   0.7466000000000000    0.8500000000000000    0.7947000000000000 N
   0.6780000000000000    0.8500000000000000    0.7512500000000000 N
   0.5221000000000000    0.8500000000000000    0.6736500000000000 N
   0.4696000000000000    0.8500000000000000    0.6199000000000000 N
   0.4188000000000000    0.8500000000000000    0.5729000000000000 N
   0.6879999999999999    0.9500000000000000    0.0839500000000000 N
   0.7534000000000000    0.9500000000000000    0.0447000000000000 N
   0.8220000000000000    0.9500000000000000    0.0012500000000000 N
   0.9779000000000000    0.9500000000000000    0.9236500000000000 N
   0.0304000000000000    0.9500000000000000    0.8699000000000000 N
   0.0811999999999999    0.9500000000000000    0.8229000000000000 N
   0.1880000000000000    0.9500000000000000    0.6660500000000000 N
   0.2534000000000000    0.9500000000000000    0.7053000000000000 N
   0.3220000000000000    0.9500000000000000    0.7487500000000000 N
   0.4779000000000000    0.9500000000000000    0.8263500000000000 N
   0.5304000000000000    0.9500000000000000    0.8801000000000000 N
   0.5812000000000000    0.9500000000000000    0.9271000000000000 N
   0.3120000000000000    0.8500000000000000    0.4160500000000000 N
   0.2466000000000000    0.8500000000000000    0.4553000000000000 N
   0.1780000000000000    0.8500000000000000    0.4987500000000000 N
   0.0221000000000000    0.8500000000000000    0.5763500000000000 N
   0.9696000000000000    0.8500000000000000    0.6301000000000000 N
   0.9188000000000001    0.8500000000000000    0.6771000000000000 N
