H128 N32 Cl32 O128
1.0
  18.3520000000000003    0.0000000000000000    0.0000000000000011
  -0.0000000000000007   11.5936000000000003    0.0000000000000007
   0.0000000000000000    0.0000000000000000   14.8401999999999994
H N Cl O
128 32 32 128
direct
   0.4383557500000000    0.4468455300000000    0.0685706000000000 H
   0.3094760700000000    0.0530492100000000    0.3183850900000000 H
   0.0598888700000000    0.1968844500000000    0.4307704200000000 H
   0.1889216800000000    0.3031176700000000    0.1808629400000000 H
   0.0598901100000000    0.0531239500000000    0.4307754900000000 H
   0.1889641800000000    0.4468490200000000    0.1808330800000000 H
   0.4383540700000000    0.3031443700000000    0.0685719500000000 H
   0.3094529700000000    0.1969433900000000    0.3184005200000000 H
   0.4057560100000000    0.3749962800000000    0.1586719200000000 H
   0.3586683700000000    0.3749967500000000    0.0608229800000000 H
   0.3416190900000000    0.1249951700000000    0.4085119400000000 H
   0.3892962600000000    0.1250285300000000    0.3114132300000000 H
   0.0937126200000000    0.1250009300000000    0.3416067700000000 H
   0.1395656900000000    0.1250064000000000    0.4402626400000000 H
   0.1552567000000000    0.3749783900000000    0.0915831300000000 H
   0.1092553500000000    0.3750418700000000    0.1901683400000000 H
   0.9402213699999999    0.4468118500000000    0.0693192600000000 H
   0.8110721800000000    0.0531265000000000    0.3191415200000000 H
   0.5617599000000000    0.1969230900000000    0.4315151800000000 H
   0.6905040400000000    0.3030349000000000    0.1816262600000000 H
   0.5615268700000000    0.0532230000000000    0.4313415800000000 H
   0.6905442500000000    0.4469329300000000    0.1816016100000000 H
   0.9399952499999999    0.3030512000000000    0.0691333900000000 H
   0.8110367400000000    0.1968568900000000    0.3191665700000000 H
   0.9062840400000000    0.3748834500000000    0.1583918700000000 H
   0.8604331200000001    0.3752465700000000    0.0597353600000000 H
   0.8447404100000000    0.1249897600000000    0.4084190700000000 H
   0.8907427100000000    0.1250408600000000    0.3098333800000000 H
   0.5942450000000000    0.1251107400000000    0.3413292800000000 H
   0.6413295800000000    0.1247523900000000    0.4391800100000000 H
   0.6583747300000000    0.3749805600000000    0.0914912900000000 H
   0.6106950600000000    0.3750387000000000    0.1885849600000000 H
   0.4382632300000000    0.9469104400000000    0.0685073900000000 H
   0.3095840900000000    0.5529867800000000    0.3183055300000000 H
   0.0597993100000000    0.6968261300000000    0.4306976400000000 H
   0.1890118000000000    0.8031756700000000    0.1807894600000000 H
   0.0599777500000000    0.5530648600000000    0.4308430000000000 H
   0.1888790800000000    0.9469074500000000    0.1808969300000000 H
   0.4384498900000000    0.8032085000000000    0.0686444700000000 H
   0.3093801600000000    0.6968866100000000    0.3184565900000000 H
   0.4057500900000000    0.8750883600000000    0.1586710900000000 H
   0.3586704800000000    0.8748024100000000    0.0608181400000000 H
   0.3416239400000000    0.6249014899999999    0.4085077900000000 H
   0.3893110200000000    0.6252163400000000    0.3114228900000000 H
   0.0937162600000000    0.6249081000000000    0.3416077000000000 H
   0.1395645100000000    0.6251942800000000    0.4402649600000000 H
   0.1552500000000000    0.8750691000000000    0.0915845900000000 H
   0.1092583900000000    0.8748563300000000    0.1901752800000000 H
   0.9401335700000000    0.9468715700000000    0.0692516700000000 H
   0.8111567000000000    0.5530686000000000    0.3190780000000000 H
   0.5616644500000000    0.6968595900000000    0.4314426900000000 H
   0.6905761700000000    0.8030917300000000    0.1815705200000000 H
   0.5616189800000000    0.5531578800000000    0.4314045000000000 H
   0.6904349900000000    0.9469957500000000    0.1816818300000000 H
   0.9400853800000000    0.8031093200000000    0.0692069200000000 H
   0.8109473000000000    0.6967991700000000    0.3192394100000000 H
   0.9062801700000001    0.8749768700000000    0.1583910400000000 H
   0.8604341200000000    0.8750578800000000    0.0597323800000000 H
   0.8447470000000000    0.6248996800000000    0.4084175300000000 H
   0.8907396200000000    0.6252250600000000    0.3098266600000000 H
   0.5942507600000000    0.6250186800000000    0.3413298600000000 H
   0.6413279300000000    0.6249458700000000    0.4391848100000000 H
   0.6583693900000001    0.8750744900000000    0.0914955900000000 H
   0.6106793300000000    0.8748503399999999    0.1885751800000000 H
   0.4383589200000000    0.4468453300000000    0.5685684200000000 H
   0.3094832900000000    0.0530481200000000    0.8183794500000000 H
   0.0598862400000000    0.1968842600000000    0.9307684200000000 H
   0.1889237300000000    0.3031180900000000    0.6808629000000000 H
   0.0598869700000000    0.0531243900000000    0.9307729600000000 H
   0.1889659800000000    0.4468487100000000    0.6808332200000000 H
   0.4383574700000000    0.3031448100000000    0.5685698900000000 H
   0.3094592700000000    0.1969438700000000    0.8183954300000000 H
   0.4057593600000000    0.3749963700000000    0.6586704900000000 H
   0.3586716700000000    0.3749965400000000    0.5608214200000000 H
   0.3416178600000000    0.1249948400000000    0.9085117800000000 H
   0.3893019400000000    0.1250294500000000    0.8114195100000000 H
   0.0937143500000000    0.1250012600000000    0.8416074700000000 H
   0.1395626700000000    0.1250057900000000    0.9402676900000000 H
   0.1552517800000000    0.3749784900000000    0.5915865600000000 H
   0.1092581800000000    0.3750416000000000    0.6901778900000000 H
   0.9402249400000000    0.4468111300000000    0.5693220600000000 H
   0.8110695800000000    0.0531272700000000    0.8191420400000000 H
   0.5617559500000000    0.1969223500000000    0.9315166400000000 H
   0.6904966200000000    0.3030338200000000    0.6816322200000000 H
   0.5615242800000000    0.0532228900000000    0.9313441400000000 H
   0.6905382500000000    0.4469333400000000    0.6816061300000000 H
   0.9399975000000000    0.3030511200000000    0.5691352300000000 H
   0.8110354300000000    0.1968568900000000    0.8191659400000000 H
   0.9062822500000000    0.3748829100000000    0.6583911800000000 H
   0.8604361699999999    0.3752480500000000    0.5597302199999999 H
   0.8447452500000000    0.1249905200000000    0.9084156600000000 H
   0.8907398900000000    0.1250394600000000    0.8098239000000000 H
   0.5942417600000000    0.1251100400000000    0.8413306699999999 H
   0.6413262800000000    0.1247538700000000    0.9391816800000000 H
   0.6583757500000000    0.3749795900000000    0.5914914800000000 H
   0.6106893900000000    0.3750402700000000    0.6885789300000000 H
   0.4382668500000000    0.9469098400000000    0.5685056700000000 H
   0.3095908700000000    0.5529860400000000    0.8183002100000000 H
   0.0597964600000000    0.6968258400000000    0.9306953200000000 H
   0.1890140800000000    0.8031762600000000    0.6807892300000000 H
   0.0599748700000000    0.5530652100000000    0.9308407400000001 H
   0.1888806800000000    0.9469072600000000    0.6808972400000000 H
   0.4384527600000000    0.8032085600000000    0.5686421500000000 H
   0.3093868900000000    0.6968874000000000    0.8184513700000000 H
   0.4057533600000000    0.8750879400000000    0.6586697200000000 H
   0.3586737400000000    0.8748031500000000    0.5608165899999999 H
   0.3416228200000000    0.6249013900000000    0.9085076300000000 H
   0.3893167400000000    0.6252163500000000    0.8114291100000000 H
   0.0937180400000000    0.6249080700000000    0.8416083900000000 H
   0.1395615100000000    0.6251943400000000    0.9402700400000000 H
   0.1552451100000000    0.8750694700000000    0.5915880000000000 H
   0.1092612200000000    0.8748556100000000    0.6901848000000000 H
   0.9401369800000000    0.9468710200000000    0.5692544700000000 H
   0.8111549000000000    0.5530688700000000    0.8190779500000001 H
   0.5616612800000000    0.6968593100000000    0.9314446300000000 H
   0.6905692100000000    0.8030908300000000    0.6815759500000000 H
   0.5616156300000000    0.5531582600000000    0.9314063200000000 H
   0.6904288500000000    0.9469962600000000    0.6816864500000001 H
   0.9400878000000000    0.8031094200000000    0.5692088100000000 H
   0.8109451400000000    0.6967986400000000    0.8192394800000000 H
   0.9062783599999999    0.8749763600000000    0.6583903700000000 H
   0.8604371700000000    0.8750590300000000    0.5597272100000000 H
   0.8447518300000000    0.6248996800000000    0.9084141700000000 H
   0.8907367800000000    0.6252255000000000    0.8098172000000000 H
   0.5942477200000000    0.6250187400000000    0.8413312300000000 H
   0.6413246100000000    0.6249456700000000    0.9391866500000000 H
   0.6583703900000000    0.8750739600000000    0.5914956900000000 H
   0.6106737500000000    0.8748512500000000    0.6885692200000000 H
   0.4097983500000000    0.3749963900000000    0.0889239600000000 N
   0.3379275400000000    0.1250032800000000    0.3387834700000000 N
   0.0888134200000000    0.1250032200000000    0.4111981700000000 N
   0.1600483000000000    0.3749974700000000    0.1611972200000000 N
   0.9111848900000000    0.3749989400000000    0.0888009800000000 N
   0.8399498100000000    0.1250028100000000    0.3388044300000000 N
   0.5902007700000000    0.1250015600000000    0.4110768200000000 N
   0.6620659500000000    0.3749975100000000    0.1612193200000000 N
   0.4097983200000000    0.8750016600000000    0.0889242000000000 N
   0.3379369400000000    0.6249983700000000    0.3387797800000000 N
   0.0888132600000000    0.6249990200000000    0.4111981600000000 N
   0.1600487000000000    0.8750014600000000    0.1611973800000000 N
   0.9111849900000000    0.8750031900000000    0.0888010000000000 N
   0.8399493800000000    0.6249988300000000    0.3388042300000000 N
   0.5902008900000000    0.6249961900000000    0.4110764600000000 N
   0.6620558500000000    0.8750024700000000    0.1612232100000000 N
   0.4098015800000000    0.3749964100000000    0.5889226400000001 N
   0.3379306600000000    0.1250032900000000    0.8387829800000000 N
   0.0888121100000000    0.1250032200000000    0.9111985100000000 N
   0.1600485800000000    0.3749974500000000    0.6611997800000000 N
   0.9111861900000000    0.3749989700000000    0.5888006500000000 N
   0.8399495100000000    0.1250028300000000    0.8388018800000000 N
   0.5901975800000000    0.1250015500000000    0.9110780900000000 N
   0.6620627600000000    0.3749975100000000    0.6612198300000000 N
   0.4098014900000000    0.8750016200000000    0.5889229499999999 N
   0.3379401200000000    0.6249983700000000    0.8387792900000000 N
   0.0888119800000000    0.6249990400000000    0.9111984900000000 N
   0.1600489800000000    0.8750014699999999    0.6611999300000000 N
   0.9111862900000000    0.8750032300000000    0.5888006900000000 N
   0.8399490700000000    0.6249988600000000    0.8388017200000000 N
   0.5901977600000000    0.6249961700000000    0.9110777100000000 N
   0.6620527000000000    0.8750024800000000    0.6612236400000000 N
   0.0350658900000000    0.1250028400000000    0.1522228900000000 Cl
   0.2138180300000000    0.3750046100000000    0.4021930400000000 Cl
   0.4628604300000000    0.3749987000000000    0.3478843100000000 Cl
   0.2839698000000000    0.1249984200000000    0.0978136700000000 Cl
   0.5371314500000000    0.1249951000000000    0.1521150400000000 Cl
   0.7160324400000000    0.3750007900000000    0.4021861600000000 Cl
   0.9649326300000000    0.3750040800000000    0.3477758900000000 Cl
   0.7861847400000000    0.1249999700000000    0.0978078400000000 Cl
   0.0350652400000000    0.6250030700000000    0.1522253500000000 Cl
   0.2138195100000000    0.8750029700000000    0.4021950700000000 Cl
   0.4628635100000000    0.8749979500000000    0.3478821200000000 Cl
   0.2839688800000000    0.6249978800000000    0.0978109100000000 Cl
   0.5371279000000000    0.6249963900000000    0.1521173800000000 Cl
   0.7160331900000000    0.8750009399999999    0.4021890600000000 Cl
   0.9649332400000000    0.8750038400000000    0.3477734700000000 Cl
   0.7861826900000000    0.6250018800000000    0.0978059000000000 Cl
   0.0350643600000000    0.1250028500000000    0.6522205599999999 Cl
   0.2138167800000000    0.3750045600000000    0.9021970600000000 Cl
   0.4628615000000000    0.3749986800000000    0.8478840000000000 Cl
   0.2839674800000000    0.1249990100000000    0.5978157900000000 Cl
   0.5371317400000000    0.1249953600000000    0.6521155300000000 Cl
   0.7160340700000000    0.3750004200000000    0.9021840500000000 Cl
   0.9649338800000000    0.3750040200000000    0.8477782600000000 Cl
   0.7861860800000000    0.1249997700000000    0.5978038200000000 Cl
   0.0350638300000000    0.6250030200000000    0.6522230200000000 Cl
   0.2138182200000000    0.8750027000000000    0.9021989300000000 Cl
   0.4628638500000000    0.8749980800000000    0.8478817700000000 Cl
   0.2839673900000000    0.6249979100000000    0.5978128300000000 Cl
   0.5371284900000000    0.6249964900000000    0.6521178900000000 Cl
   0.7160347100000000    0.8750011400000000    0.9021871600000000 Cl
   0.9649344600000000    0.8750038300000000    0.8477758399999999 Cl
   0.7861838799999999    0.6250019100000000    0.5978019800000000 Cl
   0.0399751300000000    0.0209525500000000    0.0944485200000000 O
   0.2089074900000000    0.4790614900000000    0.3444436000000000 O
   0.4578616400000000    0.2708775600000000    0.4055768800000000 O
   0.2888789800000000    0.2290829300000000    0.1555614000000000 O
   0.4578639500000000    0.4791251000000000    0.4055784700000000 O
   0.2888866200000000    0.0209172800000000    0.1555608600000000 O
   0.0399761800000000    0.2290460000000000    0.0944490400000000 O
   0.2088963100000000    0.2709397400000000    0.3444453000000000 O
   0.9649627600000000    0.1249996100000000    0.2002897300000000 O
   0.0972950900000000    0.1249994300000000    0.2162436100000000 O
   0.2839092000000000    0.3749996700000000    0.4503039400000000 O
   0.1515892400000000    0.3750000200000000    0.4662462400000000 O
   0.5329228600000000    0.3750004300000000    0.2997439400000000 O
   0.4005852100000000    0.3750006400000000    0.2837237200000000 O
   0.2138979300000000    0.1249986300000000    0.0497146500000000 O
   0.3462049500000000    0.1249995400000000    0.0337729600000000 O
   0.5421203400000000    0.0208754100000000    0.0944193300000000 O
   0.7111107400000000    0.4790817700000000    0.3444396200000000 O
   0.9600207600000000    0.2709535800000000    0.4055503300000000 O
   0.7911005100000000    0.2290608600000000    0.1555564900000000 O
   0.9600274100000000    0.4790463100000000    0.4055509300000000 O
   0.7910930200000000    0.0209382200000000    0.1555554300000000 O
   0.5421574300000001    0.2291195200000000    0.0944238300000000 O
   0.7111213300000000    0.2709164400000000    0.3444379700000000 O
   0.4670704500000000    0.1250090400000000    0.2002592000000000 O
   0.5994096100000000    0.1249964700000000    0.2162709600000000 O
   0.7861040500000001    0.3750003400000000    0.4502855500000000 O
   0.6537967600000000    0.3750000100000000    0.4662256700000000 O
   0.0350371200000000    0.3749988100000000    0.2997114900000000 O
   0.9027045500000000    0.3750000500000000    0.2837542300000000 O
   0.7160935000000000    0.1250012700000000    0.0496966900000000 O
   0.8484127000000000    0.1249992500000000    0.0337522300000000 O
   0.0399771600000000    0.5209526600000000    0.0944483800000000 O
   0.2089045500000000    0.9790615200000000    0.3444434400000000 O
   0.4578732700000000    0.7708766300000000    0.4055788100000000 O
   0.2888825000000000    0.7290824400000000    0.1555607700000000 O
   0.4578541900000000    0.9791224800000000    0.4055779400000000 O
   0.2888808700000000    0.5209164500000000    0.1555618100000000 O
   0.0399723700000000    0.7290464800000001    0.0944488700000000 O
   0.2089002600000000    0.7709386499999999    0.3444455100000000 O
   0.9649621300000000    0.6249981100000001    0.2002890200000000 O
   0.0972942300000000    0.6249997600000000    0.2162429000000000 O
   0.2839105200000000    0.8750005700000000    0.4503032000000000 O
   0.1515909500000000    0.8749993800000000    0.4662451400000000 O
   0.5329255600000000    0.8750065000000000    0.2997431600000000 O
   0.4005875300000000    0.8749966300000001    0.2837264500000000 O
   0.2138973100000000    0.6249989400000000    0.0497147700000000 O
   0.3462040500000000    0.6250006500000000    0.0337738900000000 O
   0.5421336200000000    0.5208788500000000    0.0944205100000000 O
   0.7111163000000000    0.9790822600000000    0.3444389000000000 O
   0.9600250900000000    0.7709530700000000    0.4055505700000000 O
   0.7910975000000000    0.7290620600000000    0.1555562500000000 O
   0.9600246400000000    0.9790462100000000    0.4055509600000000 O
   0.7910959500000000    0.5209382900000000    0.1555554700000000 O
   0.5421404200000000    0.7291209100000000    0.0944213100000000 O
   0.7111183900000000    0.7709168100000000    0.3444384000000000 O
   0.4670672900000000    0.6250012300000000    0.2002601200000000 O
   0.5994069800000000    0.6250005300000000    0.2162681200000000 O
   0.7861045400000000    0.8750000300000000    0.4502855100000000 O
   0.6537974900000000    0.8749992400000000    0.4662249000000000 O
   0.0350377400000000    0.8750004400000000    0.2997123400000000 O
   0.9027054300000000    0.8749997300000000    0.2837548600000000 O
   0.7160916100000000    0.6250004200000000    0.0496975000000000 O
   0.8484105400000000    0.6249999200000000    0.0337536300000000 O
   0.0399757300000000    0.0209515800000000    0.5944475000000000 O
   0.2089071300000000    0.4790571400000000    0.8444436100000000 O
   0.4578612900000000    0.2708782100000000    0.9055769400000000 O
   0.2888764800000000    0.2290845100000000    0.6555613900000000 O
   0.4578634000000000    0.4791243400000000    0.9055785200000001 O
   0.2888863100000000    0.0209161700000000    0.6555596900000000 O
   0.0399767100000000    0.2290469300000000    0.5944480300000000 O
   0.2088952500000000    0.2709440400000000    0.8444453600000000 O
   0.9649622600000000    0.1249996300000000    0.7002898200000000 O
   0.0972941600000000    0.1249994500000000    0.7162400200000000 O
   0.2839097800000000    0.3749996300000000    0.9503043900000000 O
   0.1515889000000000    0.3749999900000000    0.9662520600000000 O
   0.5329240800000000    0.3750005800000000    0.7997437400000000 O
   0.4005859300000000    0.3750005300000000    0.7837237700000000 O
   0.2138979700000000    0.1249985900000000    0.5497134100000000 O
   0.3462026100000000    0.1249996800000000    0.5337758600000000 O
   0.5421216000000000    0.0208763100000000    0.5944194699999999 O
   0.7111097400000000    0.4790827900000000    0.8444405400000000 O
   0.9600208600000000    0.2709526600000000    0.9055515600000000 O
   0.7911001000000000    0.2290564800000000    0.6555564600000000 O
   0.9600263000000000    0.4790471600000000    0.9055519800000000 O
   0.7910947200000000    0.0209423900000000    0.6555552900000000 O
   0.5421563900000000    0.2291191200000000    0.5944235500000000 O
   0.7111259599999999    0.2709145100000000    0.8444382100000000 O
   0.4670702700000000    0.1250087300000000    0.7002587000000000 O
   0.5994098100000000    0.1249962500000000    0.7162718200000000 O
   0.7861033700000000    0.3750006100000000    0.9502866700000000 O
   0.6537985800000000    0.3749995300000000    0.9662230800000000 O
   0.0350372800000000    0.3749990300000000    0.7997113600000000 O
   0.9027052200000000    0.3750001000000000    0.7837578100000000 O
   0.7160930599999999    0.1250010600000000    0.5496961600000000 O
   0.8484131000000000    0.1250000500000000    0.5337463500000000 O
   0.0399769300000000    0.5209517100000000    0.5944471800000000 O
   0.2089051000000000    0.9790572400000001    0.8444434400000000 O
   0.4578722000000000    0.7708773600000000    0.9055787199999999 O
   0.2888812800000000    0.7290837100000001    0.6555602200000000 O
   0.4578546500000000    0.9791219600000000    0.9055781200000000 O
   0.2888783800000000    0.5209149900000000    0.6555611700000000 O
   0.0399735900000000    0.7290474000000000    0.5944479800000000 O
   0.2088985600000000    0.7709427300000000    0.8444455300000000 O
   0.9649617800000000    0.6249983700000000    0.7002891200000000 O
   0.0972934300000000    0.6249998100000000    0.7162393200000000 O
   0.2839109200000000    0.8750003400000000    0.9503037700000000 O
   0.1515905700000000    0.8749997800000000    0.9662508100000000 O
   0.5329261900000000    0.8750062700000000    0.7997433000000000 O
   0.4005877600000000    0.8749966100000000    0.7837260600000000 O
   0.2138980000000000    0.6249989500000001    0.5497137000000000 O
   0.3462023300000000    0.6250005300000000    0.5337762100000000 O
   0.5421342400000000    0.5208795700000000    0.5944205000000000 O
   0.7111171200000000    0.9790835300000000    0.8444393400000000 O
   0.9600243500000000    0.7709521800000000    0.9055516900000000 O
   0.7910968600000000    0.7290578300000000    0.6555564400000000 O
   0.9600244700000000    0.9790470500000000    0.9055521900000000 O
   0.7910979000000000    0.5209425800000000    0.6555553000000000 O
   0.5421402100000000    0.7291204300000000    0.5944212200000000 O
   0.7111211700000000    0.7709152800000000    0.8444392700000000 O
   0.4670673500000000    0.6250011800000000    0.7002594500000000 O
   0.5994073500000000    0.6250004600000000    0.7162692000000001 O
   0.7861039200000000    0.8750001500000000    0.9502865000000000 O
   0.6537992900000000    0.8749990000000000    0.9662226700000000 O
   0.0350378600000000    0.8750003200000001    0.7997122100000000 O
   0.9027060600000000    0.8749997500000000    0.7837584800000000 O
   0.7160911200000000    0.6250003100000000    0.5496969100000000 O
   0.8484108600000000    0.6250002500000000    0.5337479899999999 O
