Pb24 N144
1.0
  13.3000000000000007    0.0000000000000000    0.0000000000000008
  -0.0000000000000007   11.3699999999999992    0.0000000000000007
   0.0000000000000000    0.0000000000000000   16.3200000000000003
Pb N
24 144
direct
   0.0320000000000000    0.8670000000000000    0.2400000000000000 Pb
   0.1720000000000000    0.1190000000000000    0.4060000000000000 Pb
   0.1665000000000000    0.1310000000000000    0.0840000000000000 Pb
   0.4680000000000000    0.1330000000000000    0.7400000000000000 Pb
   0.3280000000000000    0.8810000000000000    0.9060000000000000 Pb
   0.3335000000000000    0.8690000000000000    0.5840000000000000 Pb
   0.2820000000000000    0.6330000000000000    0.2400000000000000 Pb
   0.4220000000000000    0.3810000000000000    0.4060000000000000 Pb
   0.4165000000000000    0.3690000000000000    0.0840000000000000 Pb
   0.2180000000000000    0.3670000000000000    0.7400000000000000 Pb
   0.0780000000000000    0.6190000000000000    0.9060000000000000 Pb
   0.0835000000000000    0.6310000000000000    0.5840000000000000 Pb
   0.5320000000000000    0.8670000000000000    0.2400000000000000 Pb
   0.6720000000000000    0.1190000000000000    0.4060000000000000 Pb
   0.6665000000000000    0.1310000000000000    0.0840000000000000 Pb
   0.9680000000000000    0.1330000000000000    0.7400000000000000 Pb
   0.8280000000000000    0.8810000000000000    0.9060000000000000 Pb
   0.8335000000000000    0.8690000000000000    0.5840000000000000 Pb
   0.7820000000000000    0.6330000000000000    0.2400000000000000 Pb
   0.9220000000000000    0.3810000000000000    0.4060000000000000 Pb
   0.9165000000000000    0.3690000000000000    0.0840000000000000 Pb
   0.7180000000000000    0.3670000000000000    0.7400000000000000 Pb
   0.5780000000000000    0.6190000000000000    0.9060000000000000 Pb
   0.5835000000000000    0.6310000000000000    0.5840000000000000 Pb
   0.0815000000000000    0.2810000000000000    0.1840000000000000 N
   0.0770000000000000    0.2760000000000000    0.2510000000000000 N
   0.0730000000000000    0.2710000000000000    0.3260000000000000 N
   0.0490000000000000    0.2280000000000000    0.4880000000000000 N
   0.0540000000000000    0.2670000000000000    0.5600000000000001 N
   0.0580000000000000    0.3000000000000000    0.6240000000000000 N
   0.0610000000000000    0.2840000000000000    0.8600000000000000 N
   0.0555000000000000    0.2620000000000000    0.9240000000000000 N
   0.0500000000000000    0.2390000000000000    0.9960000000000000 N
   0.2500000000000000    0.4900000000000000    0.3650000000000000 N
   0.1810000000000000    0.4980000000000000    0.4070000000000000 N
   0.1065000000000000    0.5060000000000000    0.4430000000000000 N
   0.4375000000000000    0.4680000000000000    0.2430000000000000 N
   0.0125000000000000    0.5280000000000000    0.2400000000000000 N
   0.0815000000000000    0.5920000000000000    0.2370000000000000 N
   0.2375000000000000    0.4950000000000000    0.1170000000000000 N
   0.1685000000000000    0.4890000000000000    0.0840000000000000 N
   0.0590000000000000    0.4810000000000000    0.0480000000000000 N
   0.4185000000000000    0.7190000000000000    0.6840000000000001 N
   0.4230000000000000    0.7240000000000000    0.7510000000000000 N
   0.4270000000000000    0.7290000000000000    0.8260000000000000 N
   0.4510000000000000    0.7720000000000000    0.9880000000000000 N
   0.4460000000000000    0.7330000000000000    0.0600000000000000 N
   0.4420000000000000    0.7000000000000000    0.1240000000000000 N
   0.4390000000000000    0.7160000000000000    0.3600000000000000 N
   0.4445000000000000    0.7380000000000000    0.4240000000000000 N
   0.4500000000000000    0.7610000000000000    0.4960000000000000 N
   0.2500000000000000    0.5100000000000000    0.8650000000000000 N
   0.3190000000000000    0.5020000000000000    0.9070000000000000 N
   0.3935000000000000    0.4940000000000000    0.9429999999999999 N
   0.0625000000000000    0.5320000000000000    0.7430000000000000 N
   0.4875000000000000    0.4720000000000000    0.7400000000000000 N
   0.4185000000000000    0.4080000000000000    0.7370000000000000 N
   0.2625000000000000    0.5050000000000000    0.6170000000000000 N
   0.3315000000000000    0.5110000000000000    0.5840000000000000 N
   0.4410000000000000    0.5190000000000000    0.5480000000000000 N
   0.3315000000000000    0.2190000000000000    0.1840000000000000 N
   0.3270000000000000    0.2240000000000000    0.2510000000000000 N
   0.3230000000000000    0.2290000000000000    0.3260000000000000 N
   0.2990000000000000    0.2720000000000000    0.4880000000000000 N
   0.3040000000000000    0.2330000000000000    0.5600000000000001 N
   0.3080000000000000    0.2000000000000000    0.6240000000000000 N
   0.3110000000000000    0.2160000000000000    0.8600000000000000 N
   0.3055000000000000    0.2380000000000000    0.9240000000000000 N
   0.3000000000000000    0.2610000000000000    0.9960000000000000 N
   0.0000000000000000    0.0100000000000000    0.3650000000000000 N
   0.4310000000000000    0.0020000000000000    0.4070000000000000 N
   0.3565000000000000    0.9940000000000000    0.4430000000000000 N
   0.1875000000000000    0.0320000000000000    0.2430000000000000 N
   0.2625000000000000    0.9720000000000000    0.2400000000000000 N
   0.3315000000000000    0.9080000000000000    0.2370000000000000 N
   0.4875000000000000    0.0050000000000000    0.1170000000000000 N
   0.4185000000000000    0.0110000000000000    0.0840000000000000 N
   0.3090000000000000    0.0190000000000000    0.0480000000000000 N
   0.1685000000000000    0.7810000000000000    0.6840000000000001 N
   0.1730000000000000    0.7760000000000000    0.7510000000000000 N
   0.1770000000000000    0.7710000000000000    0.8260000000000000 N
   0.2010000000000000    0.7280000000000000    0.9880000000000000 N
   0.1960000000000000    0.7670000000000000    0.0600000000000000 N
   0.1920000000000000    0.8000000000000000    0.1240000000000000 N
   0.1890000000000000    0.7840000000000000    0.3600000000000000 N
   0.1945000000000000    0.7620000000000000    0.4240000000000000 N
   0.2000000000000000    0.7390000000000000    0.4960000000000000 N
   0.0000000000000000    0.9900000000000000    0.8650000000000000 N
   0.0690000000000000    0.9980000000000000    0.9070000000000000 N
   0.1435000000000000    0.0060000000000000    0.9429999999999999 N
   0.3125000000000000    0.9680000000000000    0.7430000000000000 N
   0.2375000000000000    0.0280000000000000    0.7400000000000000 N
   0.1685000000000000    0.0920000000000000    0.7370000000000000 N
   0.0125000000000000    0.9950000000000000    0.6170000000000000 N
   0.0815000000000000    0.9890000000000000    0.5840000000000000 N
   0.1910000000000000    0.9810000000000000    0.5480000000000000 N
   0.5815000000000000    0.2810000000000000    0.1840000000000000 N
   0.5770000000000000    0.2760000000000000    0.2510000000000000 N
   0.5730000000000000    0.2710000000000000    0.3260000000000000 N
   0.5490000000000000    0.2280000000000000    0.4880000000000000 N
   0.5540000000000000    0.2670000000000000    0.5600000000000001 N
   0.5580000000000001    0.3000000000000000    0.6240000000000000 N
   0.5610000000000001    0.2840000000000000    0.8600000000000000 N
   0.5555000000000000    0.2620000000000000    0.9240000000000000 N
   0.5500000000000000    0.2390000000000000    0.9960000000000000 N
   0.7500000000000000    0.4900000000000000    0.3650000000000000 N
   0.6810000000000000    0.4980000000000000    0.4070000000000000 N
   0.6065000000000000    0.5060000000000000    0.4430000000000000 N
   0.9375000000000000    0.4680000000000000    0.2430000000000000 N
   0.5125000000000000    0.5280000000000000    0.2400000000000000 N
   0.5815000000000000    0.5920000000000000    0.2370000000000000 N
   0.7375000000000000    0.4950000000000000    0.1170000000000000 N
   0.6685000000000000    0.4890000000000000    0.0840000000000000 N
   0.5590000000000001    0.4810000000000000    0.0480000000000000 N
   0.9185000000000000    0.7190000000000000    0.6840000000000001 N
   0.9230000000000000    0.7240000000000000    0.7510000000000000 N
   0.9270000000000000    0.7290000000000000    0.8260000000000000 N
   0.9510000000000000    0.7720000000000000    0.9880000000000000 N
   0.9460000000000000    0.7330000000000000    0.0600000000000000 N
   0.9419999999999999    0.7000000000000000    0.1240000000000000 N
   0.9389999999999999    0.7160000000000000    0.3600000000000000 N
   0.9445000000000000    0.7380000000000000    0.4240000000000000 N
   0.9500000000000000    0.7610000000000000    0.4960000000000000 N
   0.7500000000000000    0.5100000000000000    0.8650000000000000 N
   0.8190000000000000    0.5020000000000000    0.9070000000000000 N
   0.8935000000000000    0.4940000000000000    0.9429999999999999 N
   0.5625000000000000    0.5320000000000000    0.7430000000000000 N
   0.9875000000000000    0.4720000000000000    0.7400000000000000 N
   0.9185000000000000    0.4080000000000000    0.7370000000000000 N
   0.7625000000000000    0.5050000000000000    0.6170000000000000 N
   0.8315000000000000    0.5110000000000000    0.5840000000000000 N
   0.9409999999999999    0.5190000000000000    0.5480000000000000 N
   0.8315000000000000    0.2190000000000000    0.1840000000000000 N
   0.8270000000000000    0.2240000000000000    0.2510000000000000 N
   0.8230000000000000    0.2290000000000000    0.3260000000000000 N
   0.7990000000000000    0.2720000000000000    0.4880000000000000 N
   0.8040000000000000    0.2330000000000000    0.5600000000000001 N
   0.8080000000000001    0.2000000000000000    0.6240000000000000 N
   0.8110000000000001    0.2160000000000000    0.8600000000000000 N
   0.8055000000000000    0.2380000000000000    0.9240000000000000 N
   0.8000000000000000    0.2610000000000000    0.9960000000000000 N
   0.5000000000000000    0.0100000000000000    0.3650000000000000 N
   0.9310000000000000    0.0020000000000000    0.4070000000000000 N
   0.8565000000000000    0.9940000000000000    0.4430000000000000 N
   0.6875000000000000    0.0320000000000000    0.2430000000000000 N
   0.7625000000000000    0.9720000000000000    0.2400000000000000 N
   0.8315000000000000    0.9080000000000000    0.2370000000000000 N
   0.9875000000000000    0.0050000000000000    0.1170000000000000 N
   0.9185000000000000    0.0110000000000000    0.0840000000000000 N
   0.8090000000000001    0.0190000000000000    0.0480000000000000 N
   0.6685000000000000    0.7810000000000000    0.6840000000000001 N
   0.6730000000000000    0.7760000000000000    0.7510000000000000 N
   0.6770000000000000    0.7710000000000000    0.8260000000000000 N
   0.7010000000000000    0.7280000000000000    0.9880000000000000 N
   0.6960000000000000    0.7670000000000000    0.0600000000000000 N
   0.6919999999999999    0.8000000000000000    0.1240000000000000 N
   0.6889999999999999    0.7840000000000000    0.3600000000000000 N
   0.6945000000000000    0.7620000000000000    0.4240000000000000 N
   0.7000000000000000    0.7390000000000000    0.4960000000000000 N
   0.5000000000000000    0.9900000000000000    0.8650000000000000 N
   0.5690000000000000    0.9980000000000000    0.9070000000000000 N
   0.6435000000000000    0.0060000000000000    0.9429999999999999 N
   0.8125000000000000    0.9680000000000000    0.7430000000000000 N
   0.7375000000000000    0.0280000000000000    0.7400000000000000 N
   0.6685000000000000    0.0920000000000000    0.7370000000000000 N
   0.5125000000000000    0.9950000000000000    0.6170000000000000 N
   0.5815000000000000    0.9890000000000000    0.5840000000000000 N
   0.6909999999999999    0.9810000000000000    0.5480000000000000 N
