Ag8 H112 C48 N16 Cl24 O96
1.0
  14.1379000000000001    0.0000000000000000    0.0000000000000009
  -0.0000000000000009   14.1379000000000001    0.0000000000000009
   0.0000000000000000    0.0000000000000000   14.1379000000000001
Ag H C N Cl O
8 112 48 16 24 96
direct
   0.5000000000000000    0.5000000000000000    0.5000000000000000 Ag
   0.0000000000000000    0.5000000000000000    0.0000000000000000 Ag
   0.5000000000000000    0.0000000000000000    0.0000000000000000 Ag
   0.0000000000000000    0.0000000000000000    0.5000000000000000 Ag
   0.5000000000000000    0.5000000000000000    0.0000000000000000 Ag
   0.0000000000000000    0.5000000000000000    0.5000000000000000 Ag
   0.5000000000000000    0.0000000000000000    0.5000000000000000 Ag
   0.0000000000000000    0.0000000000000000    0.0000000000000000 Ag
   0.3701000000000000    0.1736000000000000    0.3235000000000000 H
   0.1299000000000000    0.8264000000000000    0.8235000000000000 H
   0.6299000000000000    0.6736000000000000    0.1765000000000000 H
   0.8701000000000000    0.3264000000000000    0.6765000000000000 H
   0.3235000000000000    0.3701000000000000    0.1736000000000000 H
   0.8235000000000000    0.1299000000000000    0.8264000000000000 H
   0.1765000000000000    0.6299000000000000    0.6736000000000000 H
   0.6765000000000000    0.8701000000000000    0.3264000000000000 H
   0.1736000000000000    0.3235000000000000    0.3701000000000000 H
   0.8264000000000000    0.8235000000000000    0.1299000000000000 H
   0.6736000000000000    0.1765000000000000    0.6299000000000000 H
   0.3264000000000000    0.6765000000000000    0.8701000000000000 H
   0.6299000000000000    0.8264000000000000    0.6765000000000000 H
   0.8701000000000000    0.1736000000000000    0.1765000000000000 H
   0.3701000000000000    0.3264000000000000    0.8235000000000000 H
   0.1299000000000000    0.6736000000000000    0.3235000000000000 H
   0.6765000000000000    0.6299000000000000    0.8264000000000000 H
   0.1765000000000000    0.8701000000000000    0.1736000000000000 H
   0.8235000000000000    0.3701000000000000    0.3264000000000000 H
   0.3235000000000000    0.1299000000000000    0.6736000000000000 H
   0.8264000000000000    0.6765000000000000    0.6299000000000000 H
   0.1736000000000000    0.1765000000000000    0.8701000000000000 H
   0.3264000000000000    0.8235000000000000    0.3701000000000000 H
   0.6736000000000000    0.3235000000000000    0.1299000000000000 H
   0.3968000000000000    0.2179000000000000    0.2236000000000000 H
   0.1032000000000000    0.7821000000000000    0.7236000000000000 H
   0.6032000000000000    0.7179000000000000    0.2764000000000000 H
   0.8968000000000000    0.2821000000000000    0.7764000000000000 H
   0.2236000000000000    0.3968000000000000    0.2179000000000000 H
   0.7236000000000000    0.1032000000000000    0.7821000000000000 H
   0.2764000000000000    0.6032000000000000    0.7179000000000000 H
   0.7764000000000000    0.8968000000000000    0.2821000000000000 H
   0.2179000000000000    0.2236000000000000    0.3968000000000000 H
   0.7821000000000000    0.7236000000000000    0.1032000000000000 H
   0.7179000000000000    0.2764000000000000    0.6032000000000000 H
   0.2821000000000000    0.7764000000000000    0.8968000000000000 H
   0.6032000000000000    0.7821000000000000    0.7764000000000000 H
   0.8968000000000000    0.2179000000000000    0.2764000000000000 H
   0.3968000000000000    0.2821000000000000    0.7236000000000000 H
   0.1032000000000000    0.7179000000000000    0.2236000000000000 H
   0.7764000000000000    0.6032000000000000    0.7821000000000000 H
   0.2764000000000000    0.8968000000000000    0.2179000000000000 H
   0.7236000000000000    0.3968000000000000    0.2821000000000000 H
   0.2236000000000000    0.1032000000000000    0.7179000000000000 H
   0.7821000000000000    0.7764000000000000    0.6032000000000000 H
   0.2179000000000000    0.2764000000000000    0.8968000000000000 H
   0.2821000000000000    0.7236000000000000    0.3968000000000000 H
   0.7179000000000000    0.2236000000000000    0.1032000000000000 H
   0.3054000000000000    0.1070000000000000    0.1619000000000000 H
   0.1946000000000000    0.8930000000000000    0.6618999999999999 H
   0.6946000000000000    0.6070000000000000    0.3381000000000000 H
   0.8054000000000000    0.3930000000000000    0.8381000000000001 H
   0.1619000000000000    0.3054000000000000    0.1070000000000000 H
   0.6618999999999999    0.1946000000000000    0.8930000000000000 H
   0.3381000000000000    0.6946000000000000    0.6070000000000000 H
   0.8381000000000001    0.8054000000000000    0.3930000000000000 H
   0.1070000000000000    0.1619000000000000    0.3054000000000000 H
   0.8930000000000000    0.6618999999999999    0.1946000000000000 H
   0.6070000000000000    0.3381000000000000    0.6946000000000000 H
   0.3930000000000000    0.8381000000000001    0.8054000000000000 H
   0.6946000000000000    0.8930000000000000    0.8381000000000001 H
   0.8054000000000000    0.1070000000000000    0.3381000000000000 H
   0.3054000000000000    0.3930000000000000    0.6618999999999999 H
   0.1946000000000000    0.6070000000000000    0.1619000000000000 H
   0.8381000000000001    0.6946000000000000    0.8930000000000000 H
   0.3381000000000000    0.8054000000000000    0.1070000000000000 H
   0.6618999999999999    0.3054000000000000    0.3930000000000000 H
   0.1619000000000000    0.1946000000000000    0.6070000000000000 H
   0.8930000000000000    0.8381000000000001    0.6946000000000000 H
   0.1070000000000000    0.3381000000000000    0.8054000000000000 H
   0.3930000000000000    0.6618999999999999    0.3054000000000000 H
   0.6070000000000000    0.1619000000000000    0.1946000000000000 H
   0.2582000000000000    0.0839000000000000    0.2613000000000000 H
   0.2418000000000000    0.9161000000000000    0.7613000000000000 H
   0.7418000000000000    0.5839000000000000    0.2387000000000000 H
   0.7582000000000000    0.4161000000000000    0.7387000000000000 H
   0.2613000000000000    0.2582000000000000    0.0839000000000000 H
   0.7613000000000000    0.2418000000000000    0.9161000000000000 H
   0.2387000000000000    0.7418000000000000    0.5839000000000000 H
   0.7387000000000000    0.7582000000000000    0.4161000000000000 H
   0.0839000000000000    0.2613000000000000    0.2582000000000000 H
   0.9161000000000000    0.7613000000000000    0.2418000000000000 H
   0.5839000000000000    0.2387000000000000    0.7418000000000000 H
   0.4161000000000000    0.7387000000000000    0.7582000000000000 H
   0.7418000000000000    0.9161000000000000    0.7387000000000000 H
   0.7582000000000000    0.0839000000000000    0.2387000000000000 H
   0.2582000000000000    0.4161000000000000    0.7613000000000000 H
   0.2418000000000000    0.5839000000000000    0.2613000000000000 H
   0.7387000000000000    0.7418000000000000    0.9161000000000000 H
   0.2387000000000000    0.7582000000000000    0.0839000000000000 H
   0.7613000000000000    0.2582000000000000    0.4161000000000000 H
   0.2613000000000000    0.2418000000000000    0.5839000000000000 H
   0.9161000000000000    0.7387000000000000    0.7418000000000000 H
   0.0839000000000000    0.2387000000000000    0.7582000000000000 H
   0.4161000000000000    0.7613000000000000    0.2582000000000000 H
   0.5839000000000000    0.2613000000000000    0.2418000000000000 H
   0.1491000000000000    0.1491000000000000    0.1491000000000000 H
   0.3509000000000000    0.8509000000000000    0.6491000000000000 H
   0.8509000000000000    0.6491000000000000    0.3509000000000000 H
   0.6491000000000000    0.3509000000000000    0.8509000000000000 H
   0.8509000000000000    0.8509000000000000    0.8509000000000000 H
   0.6491000000000000    0.1491000000000000    0.3509000000000000 H
   0.1491000000000000    0.3509000000000000    0.6491000000000000 H
   0.3509000000000000    0.6491000000000000    0.1491000000000000 H
   0.3315000000000000    0.3315000000000000    0.3315000000000000 H
   0.1685000000000000    0.6685000000000000    0.8315000000000000 H
   0.6685000000000000    0.8315000000000000    0.1685000000000000 H
   0.8315000000000000    0.1685000000000000    0.6685000000000000 H
   0.6685000000000000    0.6685000000000000    0.6685000000000000 H
   0.8315000000000000    0.3315000000000000    0.1685000000000000 H
   0.3315000000000000    0.1685000000000000    0.8315000000000000 H
   0.1685000000000000    0.8315000000000000    0.3315000000000000 H
   0.3442000000000000    0.2028200000000000    0.2661700000000000 C
   0.1558000000000000    0.7971800000000000    0.7661700000000000 C
   0.6557999999999999    0.7028200000000000    0.2338300000000000 C
   0.8442000000000001    0.2971800000000000    0.7338300000000000 C
   0.2661700000000000    0.3442000000000000    0.2028200000000000 C
   0.7661700000000000    0.1558000000000000    0.7971800000000000 C
   0.2338300000000000    0.6557999999999999    0.7028200000000000 C
   0.7338300000000000    0.8442000000000001    0.2971800000000000 C
   0.2028200000000000    0.2661700000000000    0.3442000000000000 C
   0.7971800000000000    0.7661700000000000    0.1558000000000000 C
   0.7028200000000000    0.2338300000000000    0.6557999999999999 C
   0.2971800000000000    0.7338300000000000    0.8442000000000001 C
   0.6557999999999999    0.7971800000000000    0.7338300000000000 C
   0.8442000000000001    0.2028200000000000    0.2338300000000000 C
   0.3442000000000000    0.2971800000000000    0.7661700000000000 C
   0.1558000000000000    0.7028200000000000    0.2661700000000000 C
   0.7338300000000000    0.6557999999999999    0.7971800000000000 C
   0.2338300000000000    0.8442000000000001    0.2028200000000000 C
   0.7661700000000000    0.3442000000000000    0.2971800000000000 C
   0.2661700000000000    0.1558000000000000    0.7028200000000000 C
   0.7971800000000000    0.7338300000000000    0.6557999999999999 C
   0.2028200000000000    0.2338300000000000    0.8442000000000001 C
   0.2971800000000000    0.7661700000000000    0.3442000000000000 C
   0.7028200000000000    0.2661700000000000    0.1558000000000000 C
   0.2756200000000000    0.1350400000000000    0.2178600000000000 C
   0.2243800000000000    0.8649600000000000    0.7178599999999999 C
   0.7243800000000000    0.6350400000000000    0.2821400000000000 C
   0.7756200000000000    0.3649600000000000    0.7821400000000001 C
   0.2178600000000000    0.2756200000000000    0.1350400000000000 C
   0.7178599999999999    0.2243800000000000    0.8649600000000000 C
   0.2821400000000000    0.7243800000000000    0.6350400000000000 C
   0.7821400000000001    0.7756200000000000    0.3649600000000000 C
   0.1350400000000000    0.2178600000000000    0.2756200000000000 C
   0.8649600000000000    0.7178599999999999    0.2243800000000000 C
   0.6350400000000000    0.2821400000000000    0.7243800000000000 C
   0.3649600000000000    0.7821400000000001    0.7756200000000000 C
   0.7243800000000000    0.8649600000000000    0.7821400000000001 C
   0.7756200000000000    0.1350400000000000    0.2821400000000000 C
   0.2756200000000000    0.3649600000000000    0.7178599999999999 C
   0.2243800000000000    0.6350400000000000    0.2178600000000000 C
   0.7821400000000001    0.7243800000000000    0.8649600000000000 C
   0.2821400000000000    0.7756200000000000    0.1350400000000000 C
   0.7178599999999999    0.2756200000000000    0.3649600000000000 C
   0.2178600000000000    0.2243800000000000    0.6350400000000000 C
   0.8649600000000000    0.7821400000000001    0.7243800000000000 C
   0.1350400000000000    0.2821400000000000    0.7756200000000000 C
   0.3649600000000000    0.7178599999999999    0.2756200000000000 C
   0.6350400000000000    0.2178600000000000    0.2243800000000000 C
   0.1894900000000000    0.1894900000000000    0.1894900000000000 N
   0.3105100000000000    0.8105100000000001    0.6894899999999999 N
   0.8105100000000001    0.6894899999999999    0.3105100000000000 N
   0.6894899999999999    0.3105100000000000    0.8105100000000001 N
   0.8105100000000001    0.8105100000000001    0.8105100000000001 N
   0.6894899999999999    0.1894900000000000    0.3105100000000000 N
   0.1894900000000000    0.3105100000000000    0.6894899999999999 N
   0.3105100000000000    0.6894899999999999    0.1894900000000000 N
   0.2911100000000000    0.2911100000000000    0.2911100000000000 N
   0.2088900000000000    0.7088900000000000    0.7911100000000000 N
   0.7088900000000000    0.7911100000000000    0.2088900000000000 N
   0.7911100000000000    0.2088900000000000    0.7088900000000000 N
   0.7088900000000000    0.7088900000000000    0.7088900000000000 N
   0.7911100000000000    0.2911100000000000    0.2088900000000000 N
   0.2911100000000000    0.2088900000000000    0.7911100000000000 N
   0.2088900000000000    0.7911100000000000    0.2911100000000000 N
   0.5003100000000000    0.4803700000000000    0.2490000000000000 Cl
   0.9996900000000000    0.5196300000000000    0.7490000000000000 Cl
   0.4996900000000000    0.9803700000000000    0.2510000000000000 Cl
   0.0003100000000000    0.0196300000000000    0.7510000000000000 Cl
   0.2490000000000000    0.5003100000000000    0.4803700000000000 Cl
   0.7490000000000000    0.9996900000000000    0.5196300000000000 Cl
   0.2510000000000000    0.4996900000000000    0.9803700000000000 Cl
   0.7510000000000000    0.0003100000000000    0.0196300000000000 Cl
   0.4803700000000000    0.2490000000000000    0.5003100000000000 Cl
   0.5196300000000000    0.7490000000000000    0.9996900000000000 Cl
   0.9803700000000000    0.2510000000000000    0.4996900000000000 Cl
   0.0196300000000000    0.7510000000000000    0.0003100000000000 Cl
   0.4996900000000000    0.5196300000000000    0.7510000000000000 Cl
   0.0003100000000000    0.4803700000000000    0.2510000000000000 Cl
   0.5003100000000000    0.0196300000000000    0.7490000000000000 Cl
   0.9996900000000000    0.9803700000000000    0.2490000000000000 Cl
   0.7510000000000000    0.4996900000000000    0.5196300000000000 Cl
   0.2510000000000000    0.0003100000000000    0.4803700000000000 Cl
   0.7490000000000000    0.5003100000000000    0.0196300000000000 Cl
   0.2490000000000000    0.9996900000000000    0.9803700000000000 Cl
   0.5196300000000000    0.7510000000000000    0.4996900000000000 Cl
   0.4803700000000000    0.2510000000000000    0.0003100000000000 Cl
   0.0196300000000000    0.7490000000000000    0.5003100000000000 Cl
   0.9803700000000000    0.2490000000000000    0.9996900000000000 Cl
   0.4761300000000000    0.3900800000000000    0.2891600000000000 O
   0.0238700000000000    0.6099200000000000    0.7891600000000000 O
   0.5238700000000001    0.8900800000000000    0.2108400000000000 O
   0.9761299999999999    0.1099200000000000    0.7108400000000000 O
   0.2891600000000000    0.4761300000000000    0.3900800000000000 O
   0.7891600000000000    0.0238700000000000    0.6099200000000000 O
   0.2108400000000000    0.5238700000000001    0.8900800000000000 O
   0.7108400000000000    0.9761299999999999    0.1099200000000000 O
   0.3900800000000000    0.2891600000000000    0.4761300000000000 O
   0.6099200000000000    0.7891600000000000    0.0238700000000000 O
   0.8900800000000000    0.2108400000000000    0.5238700000000001 O
   0.1099200000000000    0.7108400000000000    0.9761299999999999 O
   0.5238700000000001    0.6099200000000000    0.7108400000000000 O
   0.9761299999999999    0.3900800000000000    0.2108400000000000 O
   0.4761300000000000    0.1099200000000000    0.7891600000000000 O
   0.0238700000000000    0.8900800000000000    0.2891600000000000 O
   0.7108400000000000    0.5238700000000001    0.6099200000000000 O
   0.2108400000000000    0.9761299999999999    0.3900800000000000 O
   0.7891600000000000    0.4761300000000000    0.1099200000000000 O
   0.2891600000000000    0.0238700000000000    0.8900800000000000 O
   0.6099200000000000    0.7108400000000000    0.5238700000000001 O
   0.3900800000000000    0.2108400000000000    0.9761299999999999 O
   0.1099200000000000    0.7891600000000000    0.4761300000000000 O
   0.8900800000000000    0.2891600000000000    0.0238700000000000 O
   0.4254100000000000    0.5114500000000000    0.1869500000000000 O
   0.0745900000000000    0.4885500000000000    0.6869499999999999 O
   0.5745899999999999    0.0114500000000000    0.3130500000000000 O
   0.9254100000000001    0.9885500000000000    0.8130500000000001 O
   0.1869500000000000    0.4254100000000000    0.5114500000000000 O
   0.6869499999999999    0.0745900000000000    0.4885500000000000 O
   0.3130500000000000    0.5745899999999999    0.0114500000000000 O
   0.8130500000000001    0.9254100000000001    0.9885500000000000 O
   0.5114500000000000    0.1869500000000000    0.4254100000000000 O
   0.4885500000000000    0.6869499999999999    0.0745900000000000 O
   0.0114500000000000    0.3130500000000000    0.5745899999999999 O
   0.9885500000000000    0.8130500000000001    0.9254100000000001 O
   0.5745899999999999    0.4885500000000000    0.8130500000000001 O
   0.9254100000000001    0.5114500000000000    0.3130500000000000 O
   0.4254100000000000    0.9885500000000000    0.6869499999999999 O
   0.0745900000000000    0.0114500000000000    0.1869500000000000 O
   0.8130500000000001    0.5745899999999999    0.4885500000000000 O
   0.3130500000000000    0.9254100000000001    0.5114500000000000 O
   0.6869499999999999    0.4254100000000000    0.9885500000000000 O
   0.1869500000000000    0.0745900000000000    0.0114500000000000 O
   0.4885500000000000    0.8130500000000001    0.5745899999999999 O
   0.5114500000000000    0.3130500000000000    0.9254100000000001 O
   0.9885500000000000    0.6869499999999999    0.4254100000000000 O
   0.0114500000000000    0.1869500000000000    0.0745900000000000 O
   0.5127600000000000    0.5487600000000000    0.3236300000000000 O
   0.9872400000000000    0.4512400000000000    0.8236300000000000 O
   0.4872400000000000    0.0487600000000001    0.1763700000000000 O
   0.0127600000000001    0.9512400000000000    0.6763700000000000 O
   0.3236300000000000    0.5127600000000000    0.5487600000000000 O
   0.8236300000000000    0.9872400000000000    0.4512400000000000 O
   0.1763700000000000    0.4872400000000000    0.0487600000000001 O
   0.6763700000000000    0.0127600000000001    0.9512400000000000 O
   0.5487600000000000    0.3236300000000000    0.5127600000000000 O
   0.4512400000000000    0.8236300000000000    0.9872400000000000 O
   0.0487600000000001    0.1763700000000000    0.4872400000000000 O
   0.9512400000000000    0.6763700000000000    0.0127600000000001 O
   0.4872400000000000    0.4512400000000000    0.6763700000000000 O
   0.0127600000000001    0.5487600000000000    0.1763700000000000 O
   0.5127600000000000    0.9512400000000000    0.8236300000000000 O
   0.9872400000000000    0.0487600000000001    0.3236300000000000 O
   0.6763700000000000    0.4872400000000000    0.4512400000000000 O
   0.1763700000000000    0.0127600000000001    0.5487600000000000 O
   0.8236300000000000    0.5127600000000000    0.9512400000000000 O
   0.3236300000000000    0.9872400000000000    0.0487600000000001 O
   0.4512400000000000    0.6763700000000000    0.4872400000000000 O
   0.5487600000000000    0.1763700000000000    0.0127600000000001 O
   0.9512400000000000    0.8236300000000000    0.5127600000000000 O
   0.0487600000000001    0.3236300000000000    0.9872400000000000 O
   0.5862400000000000    0.4726200000000000    0.1960500000000000 O
   0.9137600000000000    0.5273800000000000    0.6960500000000001 O
   0.4137600000000000    0.9726200000000000    0.3039500000000000 O
   0.0862400000000001    0.0273800000000000    0.8039499999999999 O
   0.1960500000000000    0.5862400000000000    0.4726200000000000 O
   0.6960500000000001    0.9137600000000000    0.5273800000000000 O
   0.3039500000000000    0.4137600000000000    0.9726200000000000 O
   0.8039499999999999    0.0862400000000001    0.0273800000000000 O
   0.4726200000000000    0.1960500000000000    0.5862400000000000 O
   0.5273800000000000    0.6960500000000001    0.9137600000000000 O
   0.9726200000000000    0.3039500000000000    0.4137600000000000 O
   0.0273800000000000    0.8039499999999999    0.0862400000000001 O
   0.4137600000000000    0.5273800000000000    0.8039499999999999 O
   0.0862400000000001    0.4726200000000000    0.3039500000000000 O
   0.5862400000000000    0.0273800000000000    0.6960500000000001 O
   0.9137600000000000    0.9726200000000000    0.1960500000000000 O
   0.8039499999999999    0.4137600000000000    0.5273800000000000 O
   0.3039500000000000    0.0862400000000001    0.4726200000000000 O
   0.6960500000000001    0.5862400000000000    0.0273800000000000 O
   0.1960500000000000    0.9137600000000000    0.9726200000000000 O
   0.5273800000000000    0.8039499999999999    0.4137600000000000 O
   0.4726200000000000    0.3039500000000000    0.0862400000000001 O
   0.0273800000000000    0.6960500000000001    0.5862400000000000 O
   0.9726200000000000    0.1960500000000000    0.9137600000000000 O
