H48 C48 N96 O96
1.0
  16.9134111491653343    0.0000000000000000   -5.1290154317656027
  -0.0000000000000008   12.5540000000000003    0.0000000000000008
   0.0000000000000000    0.0000000000000000   13.2889999999999997
H C N O
48 48 96 96
direct
   0.1950634600000000    0.1143135300000000    0.7049128700000000 H
   0.1676452500000000    0.1848146500000000    0.3953833100000000 H
   0.2562613100000000    0.0315381600000000    0.4403537600000000 H
   0.0826459800000000    0.0018415100000000    0.6937223400000000 H
   0.9763190800000000    0.9855882900000000    0.3800321900000000 H
   0.0646171100000000    0.8340438200000000    0.4301824000000000 H
   0.1682987700000000    0.2867249600000000    0.8059566900000000 H
   0.2728131200000000    0.3015553200000000    0.1201760300000000 H
   0.1850339300000000    0.4532024000000000    0.0700368000000000 H
   0.0558358900000000    0.1742247100000000    0.7927237400000000 H
   0.0806080700000000    0.1025761500000000    0.1012560100000000 H
   0.9924534400000000    0.2559482900000000    0.0557736800000000 H
   0.3049335400000000    0.6143159000000000    0.2950954900000000 H
   0.3323574400000000    0.6848161600000000    0.6046244500000000 H
   0.2437399500000000    0.5315401000000000    0.5596570700000000 H
   0.4173493300000000    0.5018424100000000    0.3062804400000000 H
   0.5236815600000000    0.4855932500000000    0.6199662700000000 H
   0.4353854700000000    0.3340451600000000    0.5698238799999999 H
   0.3317015400000000    0.7867254299999999    0.1940444000000000 H
   0.2271864800000000    0.8015564900000000    0.8798249200000000 H
   0.3149671600000000    0.9532021100000000    0.9299662400000001 H
   0.4441640700000000    0.6742242400000000    0.2072769700000000 H
   0.4193925300000000    0.6025766100000000    0.8987441400000000 H
   0.5075476000000000    0.7559477999999999    0.9442293000000000 H
   0.6950634600000000    0.1143135500000000    0.7049130200000000 H
   0.6676453100000000    0.1848146800000000    0.3953834600000000 H
   0.7562613400000000    0.0315381900000000    0.4403539300000000 H
   0.5826459600000000    0.0018415700000000    0.6937224400000001 H
   0.4763191100000000    0.9855882900000000    0.3800322700000000 H
   0.5646171500000000    0.8340437900000000    0.4301825800000000 H
   0.6682984400000000    0.2867246800000000    0.8059564700000000 H
   0.7728130500000000    0.3015548200000000    0.1201760100000000 H
   0.6850338100000000    0.4532020400000000    0.0700366500000000 H
   0.5558357500000000    0.1742244900000000    0.7927237800000000 H
   0.5806075700000000    0.1025758200000000    0.1012558600000000 H
   0.4924532000000000    0.2559482700000000    0.0557734700000000 H
   0.8049336100000000    0.6143158600000000    0.2950951100000000 H
   0.8323573000000000    0.6848161300000000    0.6046240800000000 H
   0.7437398600000000    0.5315400700000000    0.5596565700000000 H
   0.9173495000000000    0.5018424500000001    0.3062803000000000 H
   0.0236815000000000    0.4855931300000000    0.6199661900000000 H
   0.9353853900000000    0.3340450500000000    0.5698235600000000 H
   0.8317018500000000    0.7867251500000000    0.1940446000000000 H
   0.7271865400000000    0.8015559600000000    0.8798249000000000 H
   0.8149672500000000    0.9532017400000000    0.9299663200000000 H
   0.9441642000000000    0.6742240400000000    0.2072769200000000 H
   0.9193930500000000    0.6025762800000000    0.8987443000000001 H
   0.0075478300000000    0.7559477999999999    0.9442294800000000 H
   0.1483167500000000    0.1251050300000000    0.4423187600000000 C
   0.0949476500000000    0.0078571100000000    0.6180116400000000 C
   0.0340044400000000    0.0072794500000000    0.4336267000000000 C
   0.1698055600000000    0.0832333000000000    0.6254264200000000 C
   0.2053804100000000    0.0253669400000000    0.4711509100000000 C
   0.0804366100000000    0.2050630500000000    0.8724127600000000 C
   0.1575889000000000    0.3789733900000000    0.0344966400000000 C
   0.0437426700000000    0.2620766900000000    0.0258288300000000 C
   0.0921175000000000    0.9085522900000000    0.4648432000000000 C
   0.2153179700000000    0.2801460700000000    0.0658725100000000 C
   0.1553768700000000    0.2805373400000000    0.8812602400000000 C
   0.1005502100000000    0.1623259900000000    0.0549366700000000 C
   0.3516828200000000    0.6251065300000000    0.5576861200000000 C
   0.4050503400000000    0.5078594700000000    0.3819905600000000 C
   0.4659949800000000    0.5072830100000000    0.5663739200000000 C
   0.3301927300000000    0.5832348400000000    0.3745801300000000 C
   0.2946188000000000    0.5253681000000000    0.5288544200000000 C
   0.4195643300000000    0.7050618800000000    0.1275885800000000 C
   0.3424115900000000    0.8789727400000000    0.9655057700000000 C
   0.4562576900000000    0.7620767200000000    0.9741725900000000 C
   0.4078835800000000    0.4085537900000000    0.5351605000000000 C
   0.2846816900000000    0.7801464500000000    0.9341286200000000 C
   0.3446238200000000    0.7805358100000001    0.1187407800000000 C
   0.3994504700000000    0.6623255900000000    0.9450647000000000 C
   0.6483167700000000    0.1251050200000000    0.4423188600000000 C
   0.5949476400000000    0.0078571600000000    0.6180117500000000 C
   0.5340044700000000    0.0072794600000000    0.4336267900000000 C
   0.6698055800000000    0.0832333300000000    0.6254265600000000 C
   0.7053804400000000    0.0253669500000000    0.4711510400000000 C
   0.5804365000000000    0.2050628500000000    0.8724127800000000 C
   0.6575888500000000    0.3789730100000000    0.0344965100000000 C
   0.5437425500000000    0.2620765300000000    0.0258288200000000 C
   0.5921175400000001    0.9085522700000001    0.4648433600000000 C
   0.7153179100000000    0.2801456100000000    0.0658723500000000 C
   0.6553767900000000    0.2805370500000000    0.8812601200000000 C
   0.6005500400000000    0.1623256200000000    0.0549367500000000 C
   0.8516827800000000    0.6251064600000000    0.5576858500000000 C
   0.9050504100000000    0.5078594800000000    0.3819903700000000 C
   0.9659949400000000    0.5072829300000000    0.5663737800000000 C
   0.8301927600000000    0.5832348300000000    0.3745798000000000 C
   0.7946187600000000    0.5253680600000000    0.5288540700000000 C
   0.9195644400000000    0.7050616900000000    0.1275885400000000 C
   0.8424116200000000    0.8789723699999999    0.9655058700000000 C
   0.9562578100000000    0.7620765600000000    0.9741725800000000 C
   0.9078835100000000    0.4085537200000000    0.5351602300000000 C
   0.7846817500000000    0.7801459800000000    0.9341287600000000 C
   0.8446239000000000    0.7805355200000000    0.1187408800000000 C
   0.8994506400000000    0.6623252100000000    0.9450646000000000 C
   0.2299845800000000    0.0304662800000000    0.5875506700000001 N
   0.1021796500000000    0.2487492900000000    0.5571676500000000 N
   0.1520108200000000    0.1674361000000000    0.5473670100000000 N
   0.0861234600000000    0.8127508300000000    0.6263544000000000 N
   0.1115416500000000    0.9039504400000000    0.5803753699999999 N
   0.0698160100000000    0.0894316900000000    0.3863153100000000 N
   0.1608293600000000    0.9303197700000000    0.4305490100000000 N
   0.9498476100000000    0.0396761800000000    0.5527778200000000 N
   0.0264706300000000    0.0457556500000000    0.5347247100000000 N
   0.1990938400000000    0.8445384200000000    0.3936165500000000 N
   0.2693401600000000    0.9450446800000000    0.6459820600000000 N
   0.1788304600000000    0.1977708000000000    0.1121105300000000 N
   0.2171514300000000    0.1543490600000000    0.2115734600000000 N
   0.0197813200000000    0.2576146600000000    0.9093734900000000 N
   0.1476541100000000    0.0390568500000000    0.9417606500000000 N
   0.0976398700000000    0.1205351800000000    0.9503309800000000 N
   0.9791880100000000    0.3424614200000000    0.8510773200000000 N
   0.1669658100000000    0.4751509600000000    0.8741165000000000 N
   0.1386099500000000    0.3846815900000000    0.9188121000000000 N
   0.0885991400000000    0.3565524100000000    0.0681018400000000 N
   0.0493124300000000    0.4428903200000000    0.1017340600000000 N
   0.2234970600000000    0.2422905000000000    0.9648887200000000 N
   0.3001473400000000    0.2496893000000000    0.9472416800000000 N
   0.0310136000000000    0.1310704400000000    0.2861571700000000 N
   0.2700133200000000    0.5304671200000000    0.4124548200000000 N
   0.3978197900000000    0.7487492300000000    0.4428349200000000 N
   0.3479870100000000    0.6674389600000000    0.4526377600000000 N
   0.4138749100000000    0.3127540800000000    0.3736465800000000 N
   0.3884578000000000    0.4039528000000000    0.4196286000000000 N
   0.4301839500000000    0.5894329500000000    0.6136876600000000 N
   0.3391717400000000    0.4303219000000000    0.5694557300000000 N
   0.5501506600000000    0.5396772200000000    0.4472200500000000 N
   0.4735273100000000    0.5457615900000000    0.4652751800000000 N
   0.3009048500000000    0.3445389200000000    0.6063829300000000 N
   0.2306607700000000    0.4450461400000000    0.3540232200000000 N
   0.3211705200000000    0.6977722200000001    0.8878907900000000 N
   0.2828496000000000    0.6543499300000000    0.7884274400000000 N
   0.4802194600000000    0.7576145399999999    0.0906281700000000 N
   0.3523433300000000    0.5390582100000000    0.0582393400000000 N
   0.4023586000000000    0.6205349100000001    0.0496695300000000 N
   0.5208105000000000    0.8424628800000000    0.1489232700000000 N
   0.3330345100000000    0.9751507100000000    0.1258839700000000 N
   0.3613903900000000    0.8846805300000000    0.0811899800000000 N
   0.4114009200000000    0.8565521200000000    0.9318996400000000 N
   0.4506877200000000    0.9428894799999999    0.8982661600000000 N
   0.2765030500000000    0.7422904700000000    0.0351127500000000 N
   0.1998527500000000    0.7496880100000000    0.0527606000000000 N
   0.4689861600000000    0.6310707600000000    0.7138454200000000 N
   0.7299845500000000    0.0304662600000000    0.5875507900000000 N
   0.6021796600000000    0.2487493000000000    0.5571676900000000 N
   0.6520108300000000    0.1674361100000000    0.5473671200000000 N
   0.5861234000000000    0.8127509000000001    0.6263545000000000 N
   0.6115416500000000    0.9039504900000001    0.5803755400000000 N
   0.5698160400000000    0.0894317100000000    0.3863154100000000 N
   0.6608293900000000    0.9303197700000000    0.4305491200000000 N
   0.4498476200000000    0.0396761500000000    0.5527778600000000 N
   0.5264706300000001    0.0457556700000000    0.5347247800000000 N
   0.6990938200000000    0.8445384500000001    0.3936165500000000 N
   0.7693401800000000    0.9450446400000000    0.6459821600000000 N
   0.6788303300000000    0.1977703900000000    0.1121104400000000 N
   0.7171513200000000    0.1543490800000000    0.2115735000000000 N
   0.5197812400000000    0.2576145000000000    0.9093734400000000 N
   0.6476540800000000    0.0390567100000000    0.9417607000000000 N
   0.5976397200000000    0.1205349200000000    0.9503310000000000 N
   0.4791880100000000    0.3424613100000000    0.8510773200000000 N
   0.6669654500000000    0.4751508300000000    0.8741162000000000 N
   0.6386100400000000    0.3846812200000000    0.9188120500000000 N
   0.5885990400000000    0.3565522500000000    0.0681017300000000 N
   0.5493124500000000    0.4428901800000000    0.1017340900000000 N
   0.7234969700000000    0.2422899600000000    0.9648885100000000 N
   0.8001472600000000    0.2496896200000000    0.9472414700000000 N
   0.5310136400000000    0.1310704300000000    0.2861572200000000 N
   0.7700134000000000    0.5304670600000000    0.4124544800000000 N
   0.8978197999999999    0.7487491800000000    0.4428347900000000 N
   0.8479870200000000    0.6674389200000000    0.4526374900000000 N
   0.9138750000000000    0.3127541100000000    0.3736464200000000 N
   0.8884578100000000    0.4039528100000000    0.4196283200000000 N
   0.9301839100000000    0.5894329400000000    0.6136874700000000 N
   0.8391716700000000    0.4303218700000000    0.5694554600000000 N
   0.0501506600000000    0.5396771900000000    0.4472200100000000 N
   0.9735273400000000    0.5457615300000001    0.4652751100000000 N
   0.8009049300000000    0.3445389600000000    0.6063829800000000 N
   0.7306606900000000    0.4450460200000000    0.3540229600000000 N
   0.8211706500000000    0.6977717900000000    0.8878908800000000 N
   0.7828497100000000    0.6543499699999999    0.7884273800000000 N
   0.9802195200000000    0.7576143900000000    0.0906282000000000 N
   0.8523433700000000    0.5390580600000000    0.0582392800000000 N
   0.9023587500000000    0.6205346600000000    0.0496695100000000 N
   0.0208105200000000    0.8424627600000000    0.1489232700000000 N
   0.8330348100000000    0.9751505600000000    0.1258842100000000 N
   0.8613903100000000    0.8846801700000000    0.0811900100000000 N
   0.9114010200000000    0.8565519500000000    0.9318997200000000 N
   0.9506876900000000    0.9428893400000000    0.8982661300000000 N
   0.7765031400000000    0.7422899400000000    0.0351129300000000 N
   0.6998528200000000    0.7496883000000000    0.0527607800000000 N
   0.9689860800000000    0.6310707300000000    0.7138453100000000 N
   0.0779727500000000    0.3071398000000000    0.4803007800000000 O
   0.0878242000000000    0.2563089800000000    0.6431031600000000 O
   0.2690944700000000    0.9432175699999999    0.7389296100000000 O
   0.1705392800000000    0.7552800300000000    0.3938367700000000 O
   0.3010300000000000    0.8812351200000000    0.6003215800000000 O
   0.2554543400000000    0.8692975800000000    0.3623870900000000 O
   0.0783750800000000    0.7305224800000000    0.5745818200000000 O
   0.0785793300000000    0.8249770600000000    0.7144710100000000 O
   0.8931280600000000    0.0308114500000000    0.4743248100000000 O
   0.9493715500000000    0.0501016600000000    0.6446792400000000 O
   0.1854156200000000    0.0757095400000000    0.2377438200000000 O
   0.2776694200000000    0.1996814600000000    0.2626707800000000 O
   0.9768191500000000    0.3440503800000000    0.7570417400000000 O
   0.1623917100000000    0.0310690100000000    0.8562231600000000 O
   0.1715083400000000    0.9810362000000000    0.0189939700000000 O
   0.9488911799999999    0.4062082700000000    0.8986466600000000 O
   0.0643119300000000    0.2060896600000000    0.2563433100000000 O
   0.0786268800000000    0.5317177100000000    0.1003642900000000 O
   0.1758962900000000    0.5573816300000000    0.9258748999999999 O
   0.1757403500000000    0.4623355100000000    0.7867967000000000 O
   0.9918568200000000    0.4188836400000000    0.1313689200000000 O
   0.3566604000000000    0.2621090200000000    0.0254634800000000 O
   0.3008117300000000    0.2373634400000000    0.8556195500000000 O
   0.9685527900000001    0.0880320700000000    0.2378660600000000 O
   0.4220275200000000    0.8071394100000000    0.5197005400000000 O
   0.4121755400000000    0.7563117600000000    0.3569003200000000 O
   0.2309050800000000    0.4432191300000000    0.2610748500000000 O
   0.3294613900000000    0.2552815200000000    0.6061625400000000 O
   0.1989703000000000    0.3812349700000000    0.3996812500000000 O
   0.2445457100000000    0.3692980900000000    0.6376159300000001 O
   0.4216254200000000    0.2305248200000000    0.4254166400000000 O
   0.4214208300000000    0.3249796800000000    0.2855312200000000 O
   0.6068696000000000    0.5308113800000001    0.5256722900000000 O
   0.5506315500000000    0.5501005500000000    0.3553212300000000 O
   0.3145843800000000    0.5757088700000000    0.7622566300000000 O
   0.2223307900000000    0.6996815300000000    0.7373304500000000 O
   0.5231813400000001    0.8440499800000000    0.2429595200000000 O
   0.3376082200000000    0.5310681200000000    0.1437785400000000 O
   0.3284946300000000    0.4810370200000000    0.9810061500000000 O
   0.5511097300000000    0.9062068200000000    0.1013549400000000 O
   0.4356885500000000    0.7060917100000000    0.7436582100000000 O
   0.4213729800000000    0.0317169400000000    0.8996364800000000 O
   0.3241037300000000    0.0573806200000000    0.0741252100000000 O
   0.3242599900000000    0.9623379600000000    0.2132042000000000 O
   0.5081435300000000    0.9188833900000000    0.8686308300000000 O
   0.1433422500000000    0.7621101800000000    0.9745361299999999 O
   0.1991852100000000    0.7373636099999999    0.1443820000000000 O
   0.5314479600000001    0.5880331300000000    0.7621349200000000 O
   0.5779727600000000    0.3071398000000000    0.4803008000000000 O
   0.5878241900000000    0.2563090000000000    0.6431031900000000 O
   0.7690945000000000    0.9432175900000001    0.7389296800000000 O
   0.6705392900000000    0.7552800500000000    0.3938368000000000 O
   0.8010300600000000    0.8812350799999999    0.6003217100000000 O
   0.7554543300000000    0.8692976100000001    0.3623870900000000 O
   0.5783751200000000    0.7305225200000000    0.5745819300000000 O
   0.5785793800000000    0.8249770400000001    0.7144711700000000 O
   0.3931281000000000    0.0308114800000000    0.4743248100000000 O
   0.4493715900000000    0.0501016800000000    0.6446792900000000 O
   0.6854156100000000    0.0757094200000000    0.2377437500000000 O
   0.7776693200000000    0.1996814400000000    0.2626706700000000 O
   0.4768191900000000    0.3440503400000000    0.7570417500000000 O
   0.6623916700000000    0.0310689600000000    0.8562232100000000 O
   0.6715083600000000    0.9810360900000000    0.0189939900000000 O
   0.4488912000000000    0.4062082300000000    0.8986466500000000 O
   0.5643119400000000    0.2060896700000000    0.2563433400000000 O
   0.5786268900000000    0.5317175500000000    0.1003642200000000 O
   0.6758964000000000    0.5573812200000000    0.9258749700000000 O
   0.6757405700000000    0.4623353600000000    0.7867967300000001 O
   0.4918567500000000    0.4188836600000000    0.1313688700000000 O
   0.8566602000000000    0.2621087900000000    0.0254635000000000 O
   0.8008118200000000    0.2373631900000000    0.8556195000000000 O
   0.4685528500000000    0.0880320500000000    0.2378661200000000 O
   0.9220274700000000    0.8071393700000000    0.5197004500000000 O
   0.9121755800000000    0.7563118400000000    0.3569002300000000 O
   0.7309050600000000    0.4432191300000000    0.2610746500000000 O
   0.8294613900000000    0.2552815300000000    0.6061624600000000 O
   0.6989702100000000    0.3812348900000000    0.3996810200000000 O
   0.7445457400000000    0.3692981100000000    0.6376158900000000 O
   0.9216253800000000    0.2305248500000000    0.4254164800000000 O
   0.9214207900000000    0.3249796100000000    0.2855309700000000 O
   0.1068695700000000    0.5308114000000000    0.5256723000000000 O
   0.0506315400000000    0.5501005600000000    0.3553211900000000 O
   0.8145843900000000    0.5757087400000001    0.7622567200000000 O
   0.7223308899999999    0.6996814900000000    0.7373305300000000 O
   0.0231813100000000    0.8440499700000000    0.2429594900000000 O
   0.8376082600000000    0.5310680700000000    0.1437784900000000 O
   0.8284946000000000    0.4810369000000000    0.9810061300000000 O
   0.0511097000000000    0.9062068000000000    0.1013549400000000 O
   0.9356885200000000    0.7060917100000000    0.7436581400000000 O
   0.9213729700000000    0.0317167900000000    0.8996365400000000 O
   0.8241036600000000    0.0573802500000000    0.0741251500000000 O
   0.8242598100000000    0.9623378100000000    0.2132041600000000 O
   0.0081436000000000    0.9188834000000000    0.8686308800000000 O
   0.6433424400000000    0.7621099600000000    0.9745361100000000 O
   0.6991851500000000    0.7373633800000000    0.1443820400000000 O
   0.0314478700000000    0.5880330900000000    0.7621348100000001 O
