H144 C48 N24 Cl24 O96
1.0
  14.4263999999999992    0.0000000000000000    0.0000000000000009
  -0.0000000000000009   14.4263999999999992    0.0000000000000009
   0.0000000000000000    0.0000000000000000   14.4263999999999992
H C N Cl O
144 48 24 24 96
direct
   0.6253000000000000    0.3198000000000000    0.3234000000000000 H
   0.6042000000000000    0.2770000000000000    0.2240000000000000 H
   0.6940000000000000    0.3909000000000000    0.1709000000000000 H
   0.7403999999999999    0.4075000000000000    0.2695000000000000 H
   0.5412000000000000    0.4588000000000000    0.0412000000000000 H
   0.5412000000000000    0.0412000000000000    0.0412000000000000 H
   0.8747000000000000    0.6802000000000000    0.8234000000000000 H
   0.8958000000000000    0.7230000000000000    0.7240000000000000 H
   0.8060000000000000    0.6091000000000000    0.6709000000000001 H
   0.7596000000000001    0.5925000000000000    0.7695000000000000 H
   0.9588000000000000    0.9588000000000000    0.5412000000000000 H
   0.3747000000000000    0.8198000000000000    0.1766000000000000 H
   0.3958000000000000    0.7770000000000000    0.2760000000000000 H
   0.3060000000000000    0.8909000000000000    0.3291000000000000 H
   0.2596000000000000    0.9075000000000000    0.2305000000000000 H
   0.1253000000000000    0.1802000000000000    0.6766000000000000 H
   0.1042000000000000    0.2230000000000000    0.7760000000000000 H
   0.1940000000000000    0.1091000000000000    0.8290999999999999 H
   0.2404000000000000    0.0925000000000000    0.7305000000000000 H
   0.0412000000000000    0.4588000000000000    0.9588000000000000 H
   0.3234000000000000    0.6253000000000000    0.3198000000000000 H
   0.2240000000000000    0.6042000000000000    0.2770000000000000 H
   0.1709000000000000    0.6940000000000000    0.3909000000000000 H
   0.2695000000000000    0.7403999999999999    0.4075000000000000 H
   0.0412000000000000    0.5412000000000000    0.0412000000000000 H
   0.8234000000000000    0.8747000000000000    0.6802000000000000 H
   0.7240000000000000    0.8958000000000000    0.7230000000000000 H
   0.6709000000000001    0.8060000000000000    0.6091000000000000 H
   0.7695000000000000    0.7596000000000001    0.5925000000000000 H
   0.5412000000000000    0.9588000000000000    0.9588000000000000 H
   0.1766000000000000    0.3747000000000000    0.8198000000000000 H
   0.2760000000000000    0.3958000000000000    0.7770000000000000 H
   0.3291000000000000    0.3060000000000000    0.8909000000000000 H
   0.2305000000000000    0.2596000000000000    0.9075000000000000 H
   0.4588000000000000    0.4588000000000000    0.9588000000000000 H
   0.6766000000000000    0.1253000000000000    0.1802000000000000 H
   0.7760000000000000    0.1042000000000000    0.2230000000000000 H
   0.8290999999999999    0.1940000000000000    0.1091000000000000 H
   0.7305000000000000    0.2404000000000000    0.0925000000000000 H
   0.9588000000000000    0.0412000000000000    0.4588000000000000 H
   0.3198000000000000    0.3234000000000000    0.6253000000000000 H
   0.2770000000000000    0.2240000000000000    0.6042000000000000 H
   0.3909000000000000    0.1709000000000000    0.6940000000000000 H
   0.4075000000000000    0.2695000000000000    0.7403999999999999 H
   0.0412000000000000    0.0412000000000000    0.5412000000000000 H
   0.6802000000000000    0.8234000000000000    0.8747000000000000 H
   0.7230000000000000    0.7240000000000000    0.8958000000000000 H
   0.6091000000000000    0.6709000000000001    0.8060000000000000 H
   0.5925000000000000    0.7695000000000000    0.7596000000000001 H
   0.5412000000000000    0.5412000000000000    0.9588000000000000 H
   0.9588000000000000    0.5412000000000000    0.9588000000000000 H
   0.8198000000000000    0.1766000000000000    0.3747000000000000 H
   0.7770000000000000    0.2760000000000000    0.3958000000000000 H
   0.8909000000000000    0.3291000000000000    0.3060000000000000 H
   0.9075000000000000    0.2305000000000000    0.2596000000000000 H
   0.1802000000000000    0.6766000000000000    0.1253000000000000 H
   0.2230000000000000    0.7760000000000000    0.1042000000000000 H
   0.1091000000000000    0.8290999999999999    0.1940000000000000 H
   0.0925000000000000    0.7305000000000000    0.2404000000000000 H
   0.4588000000000000    0.9588000000000000    0.0412000000000000 H
   0.3747000000000000    0.6802000000000000    0.6766000000000000 H
   0.3958000000000000    0.7230000000000000    0.7760000000000000 H
   0.3060000000000000    0.6091000000000000    0.8290999999999999 H
   0.2596000000000000    0.5925000000000000    0.7305000000000000 H
   0.1253000000000000    0.3198000000000000    0.1766000000000000 H
   0.1042000000000000    0.2770000000000000    0.2760000000000000 H
   0.1940000000000000    0.3909000000000000    0.3291000000000000 H
   0.2404000000000000    0.4075000000000000    0.2305000000000000 H
   0.0412000000000000    0.4588000000000000    0.4588000000000000 H
   0.6253000000000000    0.1802000000000000    0.8234000000000000 H
   0.6042000000000000    0.2230000000000000    0.7240000000000000 H
   0.6940000000000000    0.1091000000000000    0.6709000000000001 H
   0.7403999999999999    0.0925000000000000    0.7695000000000000 H
   0.5412000000000000    0.0412000000000000    0.5412000000000000 H
   0.5412000000000000    0.4588000000000000    0.5412000000000000 H
   0.8747000000000000    0.8198000000000000    0.3234000000000000 H
   0.8958000000000000    0.7770000000000000    0.2240000000000000 H
   0.8060000000000000    0.8909000000000000    0.1709000000000000 H
   0.7596000000000001    0.9075000000000000    0.2695000000000000 H
   0.9588000000000000    0.9588000000000000    0.0412000000000000 H
   0.6766000000000000    0.3747000000000000    0.6802000000000000 H
   0.7760000000000000    0.3958000000000000    0.7230000000000000 H
   0.8290999999999999    0.3060000000000000    0.6091000000000000 H
   0.7305000000000000    0.2596000000000000    0.5925000000000000 H
   0.9588000000000000    0.4588000000000000    0.5412000000000000 H
   0.1766000000000000    0.1253000000000000    0.3198000000000000 H
   0.2760000000000000    0.1042000000000000    0.2770000000000000 H
   0.3291000000000000    0.1940000000000000    0.3909000000000000 H
   0.2305000000000000    0.2404000000000000    0.4075000000000000 H
   0.4588000000000000    0.0412000000000000    0.4588000000000000 H
   0.8234000000000000    0.6253000000000000    0.1802000000000000 H
   0.7240000000000000    0.6042000000000000    0.2230000000000000 H
   0.6709000000000001    0.6940000000000000    0.1091000000000000 H
   0.7695000000000000    0.7403999999999999    0.0925000000000000 H
   0.5412000000000000    0.5412000000000000    0.4588000000000000 H
   0.3234000000000000    0.8747000000000000    0.8198000000000000 H
   0.2240000000000000    0.8958000000000000    0.7770000000000000 H
   0.1709000000000000    0.8060000000000000    0.8909000000000000 H
   0.2695000000000000    0.7596000000000001    0.9075000000000000 H
   0.0412000000000000    0.9588000000000000    0.9588000000000000 H
   0.6802000000000000    0.6766000000000000    0.3747000000000000 H
   0.7230000000000000    0.7760000000000000    0.3958000000000000 H
   0.6091000000000000    0.8290999999999999    0.3060000000000000 H
   0.5925000000000000    0.7305000000000000    0.2596000000000000 H
   0.5412000000000000    0.9588000000000000    0.4588000000000000 H
   0.3198000000000000    0.1766000000000000    0.1253000000000000 H
   0.2770000000000000    0.2760000000000000    0.1042000000000000 H
   0.3909000000000000    0.3291000000000000    0.1940000000000000 H
   0.4075000000000000    0.2305000000000000    0.2404000000000000 H
   0.1802000000000000    0.8234000000000000    0.6253000000000000 H
   0.2230000000000000    0.7240000000000000    0.6042000000000000 H
   0.1091000000000000    0.6709000000000001    0.6940000000000000 H
   0.0925000000000000    0.7695000000000000    0.7403999999999999 H
   0.0412000000000000    0.5412000000000000    0.5412000000000000 H
   0.4588000000000000    0.5412000000000000    0.5412000000000000 H
   0.8198000000000000    0.3234000000000000    0.8747000000000000 H
   0.7770000000000000    0.2240000000000000    0.8958000000000000 H
   0.8909000000000000    0.1709000000000000    0.8060000000000000 H
   0.9075000000000000    0.2695000000000000    0.7596000000000001 H
   0.9588000000000000    0.0412000000000000    0.9588000000000000 H
   0.6663000000000000    0.1663000000000000    0.3337000000000000 H
   0.8427000000000000    0.3427000000000000    0.1573000000000000 H
   0.8337000000000000    0.8337000000000000    0.8337000000000000 H
   0.6573000000000000    0.6573000000000000    0.6573000000000000 H
   0.3337000000000000    0.6663000000000000    0.1663000000000000 H
   0.1573000000000000    0.8427000000000000    0.3427000000000000 H
   0.1663000000000000    0.3337000000000000    0.6663000000000000 H
   0.3427000000000000    0.1573000000000000    0.8427000000000000 H
   0.3337000000000000    0.8337000000000000    0.6663000000000000 H
   0.1573000000000000    0.6573000000000000    0.8427000000000000 H
   0.1663000000000000    0.1663000000000000    0.1663000000000000 H
   0.3427000000000000    0.3427000000000000    0.3427000000000000 H
   0.6663000000000000    0.3337000000000000    0.8337000000000000 H
   0.8427000000000000    0.1573000000000000    0.6573000000000000 H
   0.8337000000000000    0.6663000000000000    0.3337000000000000 H
   0.6573000000000000    0.8427000000000000    0.1573000000000000 H
   0.4588000000000000    0.5412000000000000    0.0412000000000000 H
   0.9588000000000000    0.5412000000000000    0.4588000000000000 H
   0.4588000000000000    0.9588000000000000    0.5412000000000000 H
   0.0412000000000000    0.0412000000000000    0.0412000000000000 H
   0.4588000000000000    0.0412000000000000    0.9588000000000000 H
   0.0412000000000000    0.9588000000000000    0.4588000000000000 H
   0.9588000000000000    0.4588000000000000    0.0412000000000000 H
   0.4588000000000000    0.4588000000000000    0.4588000000000000 H
   0.6536100000000000    0.2920700000000000    0.2681700000000000 C
   0.7224200000000000    0.3601000000000000    0.2243100000000000 C
   0.8463900000000000    0.7079299999999999    0.7681700000000000 C
   0.7775800000000000    0.6399000000000000    0.7243100000000000 C
   0.3463900000000000    0.7920700000000001    0.2318300000000000 C
   0.2775800000000000    0.8601000000000000    0.2756900000000000 C
   0.1536100000000000    0.2079300000000000    0.7318300000000000 C
   0.2224200000000000    0.1399000000000000    0.7756900000000000 C
   0.2681700000000000    0.6536100000000000    0.2920700000000000 C
   0.2243100000000000    0.7224200000000000    0.3601000000000000 C
   0.7681700000000000    0.8463900000000000    0.7079299999999999 C
   0.7243100000000000    0.7775800000000000    0.6399000000000000 C
   0.2318300000000000    0.3463900000000000    0.7920700000000001 C
   0.2756900000000000    0.2775800000000000    0.8601000000000000 C
   0.7318300000000000    0.1536100000000000    0.2079300000000000 C
   0.7756900000000000    0.2224200000000000    0.1399000000000000 C
   0.2920700000000000    0.2681700000000000    0.6536100000000000 C
   0.3601000000000000    0.2243100000000000    0.7224200000000000 C
   0.7079299999999999    0.7681700000000000    0.8463900000000000 C
   0.6399000000000000    0.7243100000000000    0.7775800000000000 C
   0.7920700000000001    0.2318300000000000    0.3463900000000000 C
   0.8601000000000000    0.2756900000000000    0.2775800000000000 C
   0.2079300000000000    0.7318300000000000    0.1536100000000000 C
   0.1399000000000000    0.7756900000000000    0.2224200000000000 C
   0.3463900000000000    0.7079299999999999    0.7318300000000000 C
   0.2775800000000000    0.6399000000000000    0.7756900000000000 C
   0.1536100000000000    0.2920700000000000    0.2318300000000000 C
   0.2224200000000000    0.3601000000000000    0.2756900000000000 C
   0.6536100000000000    0.2079300000000000    0.7681700000000000 C
   0.7224200000000000    0.1399000000000000    0.7243100000000000 C
   0.8463900000000000    0.7920700000000001    0.2681700000000000 C
   0.7775800000000000    0.8601000000000000    0.2243100000000000 C
   0.7318300000000000    0.3463900000000000    0.7079299999999999 C
   0.7756900000000000    0.2775800000000000    0.6399000000000000 C
   0.2318300000000000    0.1536100000000000    0.2920700000000000 C
   0.2756900000000000    0.2224200000000000    0.3601000000000000 C
   0.7681700000000000    0.6536100000000000    0.2079300000000000 C
   0.7243100000000000    0.7224200000000000    0.1399000000000000 C
   0.2681700000000000    0.8463900000000000    0.7920700000000001 C
   0.2243100000000000    0.7775800000000000    0.8601000000000000 C
   0.7079299999999999    0.7318300000000000    0.3463900000000000 C
   0.6399000000000000    0.7756900000000000    0.2775800000000000 C
   0.2920700000000000    0.2318300000000000    0.1536100000000000 C
   0.3601000000000000    0.2756900000000000    0.2224200000000000 C
   0.2079300000000000    0.7681700000000000    0.6536100000000000 C
   0.1399000000000000    0.7243100000000000    0.7224200000000000 C
   0.7920700000000001    0.2681700000000000    0.8463900000000000 C
   0.8601000000000000    0.2243100000000000    0.7775800000000000 C
   0.7059200000000000    0.2059200000000000    0.2940800000000000 N
   0.8058400000000000    0.3058400000000000    0.1941600000000000 N
   0.7940800000000000    0.7940800000000000    0.7940800000000000 N
   0.6941600000000000    0.6941600000000000    0.6941600000000000 N
   0.2940800000000000    0.7059200000000000    0.2059200000000000 N
   0.1941600000000000    0.8058400000000000    0.3058400000000000 N
   0.2059200000000000    0.2940800000000000    0.7059200000000000 N
   0.3058400000000000    0.1941600000000000    0.8058400000000000 N
   0.2940800000000000    0.7940800000000000    0.7059200000000000 N
   0.1941600000000000    0.6941600000000000    0.8058400000000000 N
   0.2059200000000000    0.2059200000000000    0.2059200000000000 N
   0.3058400000000000    0.3058400000000000    0.3058400000000000 N
   0.7059200000000000    0.2940800000000000    0.7940800000000000 N
   0.8058400000000000    0.1941600000000000    0.6941600000000000 N
   0.7940800000000000    0.7059200000000000    0.2940800000000000 N
   0.6941600000000000    0.8058400000000000    0.1941600000000000 N
   0.5000000000000000    0.5000000000000000    0.0000000000000000 N
   0.0000000000000000    0.5000000000000000    0.5000000000000000 N
   0.5000000000000000    0.0000000000000000    0.5000000000000000 N
   0.0000000000000000    0.0000000000000000    0.0000000000000000 N
   0.5000000000000000    0.0000000000000000    0.0000000000000000 N
   0.0000000000000000    0.0000000000000000    0.5000000000000000 N
   0.5000000000000000    0.5000000000000000    0.5000000000000000 N
   0.0000000000000000    0.5000000000000000    0.0000000000000000 N
   0.5120600000000000    0.2488700000000000    0.0000000000000000 Cl
   0.9879400000000000    0.7511300000000000    0.5000000000000000 Cl
   0.4879400000000000    0.7488700000000000    0.5000000000000000 Cl
   0.0120600000000000    0.2511300000000000    0.0000000000000000 Cl
   0.0000000000000000    0.5120600000000000    0.2488700000000000 Cl
   0.5000000000000000    0.9879400000000000    0.7511300000000000 Cl
   0.5000000000000000    0.4879400000000000    0.7488700000000000 Cl
   0.0000000000000000    0.0120600000000000    0.2511300000000000 Cl
   0.2488700000000000    0.0000000000000000    0.5120600000000000 Cl
   0.7511300000000000    0.5000000000000000    0.9879400000000000 Cl
   0.7488700000000000    0.5000000000000000    0.4879400000000000 Cl
   0.2511300000000000    0.0000000000000000    0.0120600000000000 Cl
   0.4879400000000000    0.7511300000000000    0.0000000000000000 Cl
   0.0120600000000000    0.2488700000000000    0.5000000000000000 Cl
   0.5120600000000000    0.2511300000000000    0.5000000000000000 Cl
   0.9879400000000000    0.7488700000000000    0.0000000000000000 Cl
   0.0000000000000000    0.4879400000000000    0.7511300000000000 Cl
   0.5000000000000000    0.0120600000000000    0.2488700000000000 Cl
   0.5000000000000000    0.5120600000000000    0.2511300000000000 Cl
   0.0000000000000000    0.9879400000000000    0.7488700000000000 Cl
   0.7511300000000000    0.0000000000000000    0.4879400000000000 Cl
   0.2488700000000000    0.5000000000000000    0.0120600000000000 Cl
   0.2511300000000000    0.5000000000000000    0.5120600000000000 Cl
   0.7488700000000000    0.0000000000000000    0.9879400000000000 Cl
   0.5956100000000000    0.2996200000000000    0.9784300000000000 O
   0.4375400000000000    0.3129700000000000    0.0182500000000001 O
   0.5269700000000000    0.1914900000000000    0.0803799999999999 O
   0.4870100000000000    0.1909500000000000    0.9218499999999999 O
   0.9043900000000000    0.7003800000000000    0.4784300000000000 O
   0.0624600000000000    0.6870300000000000    0.5182500000000000 O
   0.9730300000000000    0.8085100000000000    0.5803800000000000 O
   0.0129900000000001    0.8090500000000000    0.4218500000000000 O
   0.4043900000000000    0.7996200000000000    0.5215700000000000 O
   0.5624600000000000    0.8129700000000000    0.4817500000000000 O
   0.4730300000000000    0.6914900000000000    0.4196200000000000 O
   0.5129899999999999    0.6909500000000000    0.5781500000000001 O
   0.0956100000000000    0.2003800000000000    0.0215700000000000 O
   0.9375400000000000    0.1870300000000000    0.9817500000000000 O
   0.0269700000000000    0.3085100000000000    0.9196200000000000 O
   0.9870100000000001    0.3090500000000000    0.0781500000000000 O
   0.9784300000000000    0.5956100000000000    0.2996200000000000 O
   0.0182500000000001    0.4375400000000000    0.3129700000000000 O
   0.0803799999999999    0.5269700000000000    0.1914900000000000 O
   0.9218499999999999    0.4870100000000000    0.1909500000000000 O
   0.4784300000000000    0.9043900000000000    0.7003800000000000 O
   0.5182500000000000    0.0624600000000000    0.6870300000000000 O
   0.5803800000000000    0.9730300000000000    0.8085100000000000 O
   0.4218500000000000    0.0129900000000001    0.8090500000000000 O
   0.5215700000000000    0.4043900000000000    0.7996200000000000 O
   0.4817500000000000    0.5624600000000000    0.8129700000000000 O
   0.4196200000000000    0.4730300000000000    0.6914900000000000 O
   0.5781500000000001    0.5129899999999999    0.6909500000000000 O
   0.0215700000000000    0.0956100000000000    0.2003800000000000 O
   0.9817500000000000    0.9375400000000000    0.1870300000000000 O
   0.9196200000000000    0.0269700000000000    0.3085100000000000 O
   0.0781500000000000    0.9870100000000001    0.3090500000000000 O
   0.2996200000000000    0.9784300000000000    0.5956100000000000 O
   0.3129700000000000    0.0182500000000001    0.4375400000000000 O
   0.1914900000000000    0.0803799999999999    0.5269700000000000 O
   0.1909500000000000    0.9218499999999999    0.4870100000000000 O
   0.7003800000000000    0.4784300000000000    0.9043900000000000 O
   0.6870300000000000    0.5182500000000000    0.0624600000000000 O
   0.8085100000000000    0.5803800000000000    0.9730300000000000 O
   0.8090500000000000    0.4218500000000000    0.0129900000000001 O
   0.7996200000000000    0.5215700000000000    0.4043900000000000 O
   0.8129700000000000    0.4817500000000000    0.5624600000000000 O
   0.6914900000000000    0.4196200000000000    0.4730300000000000 O
   0.6909500000000000    0.5781500000000001    0.5129899999999999 O
   0.2003800000000000    0.0215700000000000    0.0956100000000000 O
   0.1870300000000000    0.9817500000000000    0.9375400000000000 O
   0.3085100000000000    0.9196200000000000    0.0269700000000000 O
   0.3090500000000000    0.0781500000000000    0.9870100000000001 O
   0.4043900000000000    0.7003800000000000    0.0215700000000000 O
   0.5624600000000000    0.6870300000000000    0.9817500000000000 O
   0.4730300000000000    0.8085100000000000    0.9196200000000000 O
   0.5129899999999999    0.8090500000000000    0.0781500000000000 O
   0.0956100000000000    0.2996200000000000    0.5215700000000000 O
   0.9375400000000000    0.3129700000000000    0.4817500000000000 O
   0.0269700000000000    0.1914900000000000    0.4196200000000000 O
   0.9870100000000001    0.1909500000000000    0.5781500000000001 O
   0.5956100000000000    0.2003800000000000    0.4784300000000000 O
   0.4375400000000000    0.1870300000000000    0.5182500000000000 O
   0.5269700000000000    0.3085100000000000    0.5803800000000000 O
   0.4870100000000000    0.3090500000000000    0.4218500000000000 O
   0.9043900000000000    0.7996200000000000    0.9784300000000000 O
   0.0624600000000000    0.8129700000000000    0.0182500000000001 O
   0.9730300000000000    0.6914900000000000    0.0803799999999999 O
   0.0129900000000001    0.6909500000000000    0.9218499999999999 O
   0.0215700000000000    0.4043900000000000    0.7003800000000000 O
   0.9817500000000000    0.5624600000000000    0.6870300000000000 O
   0.9196200000000000    0.4730300000000000    0.8085100000000000 O
   0.0781500000000000    0.5129899999999999    0.8090500000000000 O
   0.5215700000000000    0.0956100000000000    0.2996200000000000 O
   0.4817500000000000    0.9375400000000000    0.3129700000000000 O
   0.4196200000000000    0.0269700000000000    0.1914900000000000 O
   0.5781500000000001    0.9870100000000001    0.1909500000000000 O
   0.4784300000000000    0.5956100000000000    0.2003800000000000 O
   0.5182500000000000    0.4375400000000000    0.1870300000000000 O
   0.5803800000000000    0.5269700000000000    0.3085100000000000 O
   0.4218500000000000    0.4870100000000000    0.3090500000000000 O
   0.9784300000000000    0.9043900000000000    0.7996200000000000 O
   0.0182500000000001    0.0624600000000000    0.8129700000000000 O
   0.0803799999999999    0.9730300000000000    0.6914900000000000 O
   0.9218499999999999    0.0129900000000001    0.6909500000000000 O
   0.7003800000000000    0.0215700000000000    0.4043900000000000 O
   0.6870300000000000    0.9817500000000000    0.5624600000000000 O
   0.8085100000000000    0.9196200000000000    0.4730300000000000 O
   0.8090500000000000    0.0781500000000000    0.5129899999999999 O
   0.2996200000000000    0.5215700000000000    0.0956100000000000 O
   0.3129700000000000    0.4817500000000000    0.9375400000000000 O
   0.1914900000000000    0.4196200000000000    0.0269700000000000 O
   0.1909500000000000    0.5781500000000001    0.9870100000000001 O
   0.2003800000000000    0.4784300000000000    0.5956100000000000 O
   0.1870300000000000    0.5182500000000000    0.4375400000000000 O
   0.3085100000000000    0.5803800000000000    0.5269700000000000 O
   0.3090500000000000    0.4218500000000000    0.4870100000000000 O
   0.7996200000000000    0.9784300000000000    0.9043900000000000 O
   0.8129700000000000    0.0182500000000001    0.0624600000000000 O
   0.6914900000000000    0.0803799999999999    0.9730300000000000 O
   0.6909500000000000    0.9218499999999999    0.0129900000000001 O
