H96 C48 N96 O96
1.0
  15.1266999999999996    0.0000000000000000    0.0000000000000009
  -0.0000000000000009   14.9125999999999994    0.0000000000000009
   0.0000000000000000    0.0000000000000000   14.3719000000000001
H C N O
96 48 96 96
direct
   0.4615000000000000    0.3864500000000000    0.4280000000000000 H
   0.5288000000000000    0.3087500000000000    0.4035000000000000 H
   0.6146000000000000    0.2916500000000000    0.6300000000000000 H
   0.6245000000000001    0.2488500000000000    0.5303000000000000 H
   0.4962000000000000    0.1531500000000000    0.4699000000000000 H
   0.4077000000000000    0.1488500000000000    0.5390000000000000 H
   0.7814000000000000    0.0879500000000000    0.1766000000000000 H
   0.7103000000000000    0.0093000000000000    0.1586000000000000 H
   0.7727000000000001    0.8909000000000000    0.3659000000000000 H
   0.7066000000000000    0.8792000000000000    0.2762000000000000 H
   0.5787000000000000    0.0698000000000000    0.3511000000000000 H
   0.5813000000000000    0.9998000000000000    0.2677000000000000 H
   0.5385000000000000    0.1135500000000000    0.9280000000000000 H
   0.4712000000000000    0.1912500000000000    0.9035000000000000 H
   0.3854000000000000    0.2083500000000000    0.1300000000000000 H
   0.3755000000000000    0.2511500000000000    0.0303000000000000 H
   0.5038000000000000    0.3468500000000000    0.9699000000000000 H
   0.5923000000000000    0.3511500000000000    0.0390000000000000 H
   0.2186000000000000    0.4120500000000000    0.6766000000000000 H
   0.2897000000000000    0.4907000000000000    0.6586000000000000 H
   0.2273000000000000    0.6091000000000000    0.8659000000000000 H
   0.2934000000000000    0.6208000000000000    0.7762000000000000 H
   0.4213000000000000    0.4302000000000000    0.8511000000000000 H
   0.4187000000000000    0.5002000000000000    0.7677000000000000 H
   0.9615000000000000    0.1135500000000000    0.4280000000000000 H
   0.0287999999999999    0.1912500000000000    0.4035000000000000 H
   0.1146000000000000    0.2083500000000000    0.6300000000000000 H
   0.1245000000000001    0.2511500000000000    0.5303000000000000 H
   0.9962000000000000    0.3468500000000000    0.4699000000000000 H
   0.9077000000000000    0.3511500000000000    0.5390000000000000 H
   0.2814000000000000    0.4120500000000000    0.1766000000000000 H
   0.2103000000000000    0.4907000000000000    0.1586000000000000 H
   0.2727000000000000    0.6091000000000000    0.3659000000000000 H
   0.2066000000000000    0.6208000000000000    0.2762000000000000 H
   0.0787000000000000    0.4302000000000000    0.3511000000000000 H
   0.0813000000000000    0.5002000000000000    0.2677000000000000 H
   0.0385000000000000    0.3864500000000000    0.9280000000000000 H
   0.9712000000000000    0.3087500000000000    0.9035000000000000 H
   0.8854000000000000    0.2916500000000000    0.1300000000000000 H
   0.8754999999999999    0.2488500000000000    0.0303000000000000 H
   0.0038000000000000    0.1531500000000000    0.9699000000000000 H
   0.0923000000000000    0.1488500000000000    0.0390000000000000 H
   0.7186000000000000    0.0879500000000000    0.6766000000000000 H
   0.7897000000000000    0.0093000000000000    0.6586000000000000 H
   0.7272999999999999    0.8909000000000000    0.8659000000000000 H
   0.7934000000000000    0.8792000000000000    0.7762000000000000 H
   0.9213000000000000    0.0698000000000000    0.8511000000000000 H
   0.9187000000000000    0.9998000000000000    0.7677000000000000 H
   0.4615000000000000    0.8864500000000000    0.4280000000000000 H
   0.5288000000000000    0.8087500000000000    0.4035000000000000 H
   0.6146000000000000    0.7916500000000000    0.6300000000000000 H
   0.6245000000000001    0.7488500000000000    0.5303000000000000 H
   0.4962000000000000    0.6531500000000000    0.4699000000000000 H
   0.4077000000000000    0.6488500000000000    0.5390000000000000 H
   0.7814000000000000    0.5879500000000000    0.1766000000000000 H
   0.7103000000000000    0.5093000000000000    0.1586000000000000 H
   0.7727000000000001    0.3909000000000000    0.3659000000000000 H
   0.7066000000000000    0.3792000000000000    0.2762000000000000 H
   0.5787000000000000    0.5698000000000000    0.3511000000000000 H
   0.5813000000000000    0.4998000000000000    0.2677000000000000 H
   0.5385000000000000    0.6135500000000000    0.9280000000000000 H
   0.4712000000000000    0.6912500000000000    0.9035000000000000 H
   0.3854000000000000    0.7083500000000000    0.1300000000000000 H
   0.3755000000000000    0.7511500000000000    0.0303000000000000 H
   0.5038000000000000    0.8468500000000000    0.9699000000000000 H
   0.5923000000000000    0.8511500000000000    0.0390000000000000 H
   0.2186000000000000    0.9120500000000000    0.6766000000000000 H
   0.2897000000000000    0.9907000000000000    0.6586000000000000 H
   0.2273000000000000    0.1091000000000000    0.8659000000000000 H
   0.2934000000000000    0.1208000000000000    0.7762000000000000 H
   0.4213000000000000    0.9302000000000000    0.8511000000000000 H
   0.4187000000000000    0.0002000000000000    0.7677000000000000 H
   0.9615000000000000    0.6135500000000000    0.4280000000000000 H
   0.0287999999999999    0.6912500000000000    0.4035000000000000 H
   0.1146000000000000    0.7083500000000000    0.6300000000000000 H
   0.1245000000000001    0.7511500000000000    0.5303000000000000 H
   0.9962000000000000    0.8468500000000000    0.4699000000000000 H
   0.9077000000000000    0.8511500000000000    0.5390000000000000 H
   0.2814000000000000    0.9120500000000000    0.1766000000000000 H
   0.2103000000000000    0.9907000000000000    0.1586000000000000 H
   0.2727000000000000    0.1091000000000000    0.3659000000000000 H
   0.2066000000000000    0.1208000000000000    0.2762000000000000 H
   0.0787000000000000    0.9302000000000000    0.3511000000000000 H
   0.0813000000000000    0.0002000000000000    0.2677000000000000 H
   0.0385000000000000    0.8864500000000000    0.9280000000000000 H
   0.9712000000000000    0.8087500000000000    0.9035000000000000 H
   0.8854000000000000    0.7916500000000000    0.1300000000000000 H
   0.8754999999999999    0.7488500000000000    0.0303000000000000 H
   0.0038000000000000    0.6531500000000000    0.9699000000000000 H
   0.0923000000000000    0.6488500000000000    0.0390000000000000 H
   0.7186000000000000    0.5879500000000000    0.6766000000000000 H
   0.7897000000000000    0.5093000000000000    0.6586000000000000 H
   0.7272999999999999    0.3909000000000000    0.8659000000000000 H
   0.7934000000000000    0.3792000000000000    0.7762000000000000 H
   0.9213000000000000    0.5698000000000000    0.8511000000000000 H
   0.9187000000000000    0.4998000000000000    0.7677000000000000 H
   0.4904000000000000    0.3338000000000000    0.4504000000000000 C
   0.5821000000000000    0.2735500000000000    0.5742000000000000 C
   0.4598000000000000    0.1846500000000000    0.5141000000000000 C
   0.7415000000000000    0.0448000000000000    0.2059000000000000 C
   0.7353000000000000    0.9218500000000001    0.3206000000000000 C
   0.6158000000000000    0.0340000000000000    0.3118000000000000 C
   0.5096000000000001    0.1662000000000000    0.9504000000000000 C
   0.4179000000000000    0.2264500000000000    0.0742000000000000 C
   0.5402000000000000    0.3153500000000000    0.0141000000000000 C
   0.2585000000000000    0.4552000000000000    0.7059000000000000 C
   0.2647000000000000    0.5781500000000001    0.8206000000000000 C
   0.3842000000000000    0.4660000000000000    0.8118000000000000 C
   0.9903999999999999    0.1662000000000000    0.4504000000000000 C
   0.0821000000000001    0.2264500000000000    0.5742000000000000 C
   0.9598000000000000    0.3153500000000000    0.5141000000000000 C
   0.2415000000000000    0.4552000000000000    0.2059000000000000 C
   0.2353000000000000    0.5781500000000001    0.3206000000000000 C
   0.1158000000000000    0.4660000000000000    0.3118000000000000 C
   0.0096000000000000    0.3338000000000000    0.9504000000000000 C
   0.9178999999999999    0.2735500000000000    0.0742000000000000 C
   0.0402000000000000    0.1846500000000000    0.0141000000000000 C
   0.7585000000000000    0.0448000000000000    0.7059000000000000 C
   0.7647000000000000    0.9218500000000001    0.8206000000000000 C
   0.8842000000000000    0.0340000000000000    0.8118000000000000 C
   0.4904000000000000    0.8338000000000000    0.4504000000000000 C
   0.5821000000000000    0.7735500000000000    0.5742000000000000 C
   0.4598000000000000    0.6846500000000000    0.5141000000000000 C
   0.7415000000000000    0.5448000000000000    0.2059000000000000 C
   0.7353000000000000    0.4218500000000000    0.3206000000000000 C
   0.6158000000000000    0.5340000000000000    0.3118000000000000 C
   0.5096000000000001    0.6662000000000000    0.9504000000000000 C
   0.4179000000000000    0.7264500000000000    0.0742000000000000 C
   0.5402000000000000    0.8153500000000000    0.0141000000000000 C
   0.2585000000000000    0.9552000000000000    0.7059000000000000 C
   0.2647000000000000    0.0781499999999999    0.8206000000000000 C
   0.3842000000000000    0.9660000000000000    0.8118000000000000 C
   0.9903999999999999    0.6662000000000000    0.4504000000000000 C
   0.0821000000000001    0.7264500000000000    0.5742000000000000 C
   0.9598000000000000    0.8153500000000000    0.5141000000000000 C
   0.2415000000000000    0.9552000000000000    0.2059000000000000 C
   0.2353000000000000    0.0781499999999999    0.3206000000000000 C
   0.1158000000000000    0.9660000000000000    0.3118000000000000 C
   0.0096000000000000    0.8338000000000000    0.9504000000000000 C
   0.9178999999999999    0.7735500000000000    0.0742000000000000 C
   0.0402000000000000    0.6846500000000000    0.0141000000000000 C
   0.7585000000000000    0.5448000000000000    0.7059000000000000 C
   0.7647000000000000    0.4218500000000000    0.8206000000000000 C
   0.8842000000000000    0.5340000000000000    0.8118000000000000 C
   0.5441000000000000    0.3528500000000000    0.5315000000000000 N
   0.5073000000000000    0.4151500000000000    0.5942000000000000 N
   0.5158000000000000    0.2054000000000000    0.5927000000000000 N
   0.4762000000000000    0.2053500000000000    0.6806000000000000 N
   0.4256000000000000    0.2655500000000000    0.4689000000000000 N
   0.3399000000000000    0.2931500000000000    0.4896000000000000 N
   0.7895799999999999    0.9820500000000000    0.2649000000000000 N
   0.8707000000000000    0.0103000000000000    0.3025000000000000 N
   0.6660000000000000    0.9700000000000000    0.3694000000000000 N
   0.6800000000000000    0.9929500000000000    0.4628000000000000 N
   0.6732000000000000    0.0926000000000000    0.2580000000000000 N
   0.6970000000000000    0.1743000000000000    0.2982000000000000 N
   0.4559000000000000    0.1471500000000000    0.0315000000000000 N
   0.4927000000000000    0.0848500000000000    0.0942000000000000 N
   0.4842000000000000    0.2946000000000000    0.0927000000000000 N
   0.5238000000000000    0.2946500000000000    0.1806000000000000 N
   0.5744000000000000    0.2344500000000000    0.9689000000000000 N
   0.6601000000000000    0.2068500000000000    0.9896000000000000 N
   0.2104200000000000    0.5179500000000000    0.7649000000000000 N
   0.1293000000000000    0.4897000000000000    0.8025000000000000 N
   0.3340000000000000    0.5300000000000000    0.8694000000000000 N
   0.3200000000000000    0.5070500000000000    0.9628000000000000 N
   0.3268000000000000    0.4074000000000000    0.7580000000000000 N
   0.3030000000000000    0.3257000000000000    0.7982000000000000 N
   0.0441000000000000    0.1471500000000000    0.5315000000000000 N
   0.0073000000000001    0.0848500000000000    0.5942000000000000 N
   0.0158000000000000    0.2946000000000000    0.5927000000000000 N
   0.9762000000000000    0.2946500000000000    0.6806000000000000 N
   0.9256000000000000    0.2344500000000000    0.4689000000000000 N
   0.8399000000000000    0.2068500000000000    0.4896000000000000 N
   0.2895800000000000    0.5179500000000000    0.2649000000000000 N
   0.3707000000000000    0.4897000000000000    0.3025000000000000 N
   0.1660000000000000    0.5300000000000000    0.3694000000000000 N
   0.1800000000000000    0.5070500000000000    0.4628000000000000 N
   0.1732000000000000    0.4074000000000000    0.2580000000000000 N
   0.1970000000000000    0.3257000000000000    0.2982000000000000 N
   0.9559000000000000    0.3528500000000000    0.0315000000000000 N
   0.9927000000000000    0.4151500000000000    0.0942000000000000 N
   0.9842000000000000    0.2054000000000000    0.0927000000000000 N
   0.0238000000000000    0.2053500000000000    0.1806000000000000 N
   0.0744000000000000    0.2655500000000000    0.9689000000000000 N
   0.1601000000000000    0.2931500000000000    0.9896000000000000 N
   0.7104200000000001    0.9820500000000000    0.7649000000000000 N
   0.6293000000000000    0.0103000000000000    0.8025000000000000 N
   0.8340000000000000    0.9700000000000000    0.8694000000000000 N
   0.8200000000000000    0.9929500000000000    0.9628000000000000 N
   0.8268000000000000    0.0926000000000000    0.7580000000000000 N
   0.8030000000000000    0.1743000000000000    0.7982000000000000 N
   0.5441000000000000    0.8528500000000000    0.5315000000000000 N
   0.5073000000000000    0.9151500000000000    0.5942000000000000 N
   0.5158000000000000    0.7054000000000000    0.5927000000000000 N
   0.4762000000000000    0.7053500000000000    0.6806000000000000 N
   0.4256000000000000    0.7655500000000000    0.4689000000000000 N
   0.3399000000000000    0.7931500000000000    0.4896000000000000 N
   0.7895799999999999    0.4820500000000000    0.2649000000000000 N
   0.8707000000000000    0.5103000000000000    0.3025000000000000 N
   0.6660000000000000    0.4700000000000000    0.3694000000000000 N
   0.6800000000000000    0.4929500000000000    0.4628000000000000 N
   0.6732000000000000    0.5926000000000000    0.2580000000000000 N
   0.6970000000000000    0.6743000000000000    0.2982000000000000 N
   0.4559000000000000    0.6471500000000000    0.0315000000000000 N
   0.4927000000000000    0.5848500000000000    0.0942000000000000 N
   0.4842000000000000    0.7946000000000000    0.0927000000000000 N
   0.5238000000000000    0.7946500000000000    0.1806000000000000 N
   0.5744000000000000    0.7344500000000000    0.9689000000000000 N
   0.6601000000000000    0.7068500000000000    0.9896000000000000 N
   0.2104200000000000    0.0179499999999999    0.7649000000000000 N
   0.1293000000000000    0.9897000000000000    0.8025000000000000 N
   0.3340000000000000    0.0300000000000000    0.8694000000000000 N
   0.3200000000000000    0.0070500000000000    0.9628000000000000 N
   0.3268000000000000    0.9074000000000000    0.7580000000000000 N
   0.3030000000000000    0.8257000000000000    0.7982000000000000 N
   0.0441000000000000    0.6471500000000000    0.5315000000000000 N
   0.0073000000000001    0.5848500000000000    0.5942000000000000 N
   0.0158000000000000    0.7946000000000000    0.5927000000000000 N
   0.9762000000000000    0.7946500000000000    0.6806000000000000 N
   0.9256000000000000    0.7344500000000000    0.4689000000000000 N
   0.8399000000000000    0.7068500000000000    0.4896000000000000 N
   0.2895800000000000    0.0179499999999999    0.2649000000000000 N
   0.3707000000000000    0.9897000000000000    0.3025000000000000 N
   0.1660000000000000    0.0300000000000000    0.3694000000000000 N
   0.1800000000000000    0.0070500000000000    0.4628000000000000 N
   0.1732000000000000    0.9074000000000000    0.2580000000000000 N
   0.1970000000000000    0.8257000000000000    0.2982000000000000 N
   0.9559000000000000    0.8528500000000000    0.0315000000000000 N
   0.9927000000000000    0.9151500000000000    0.0942000000000000 N
   0.9842000000000000    0.7054000000000000    0.0927000000000000 N
   0.0238000000000000    0.7053500000000000    0.1806000000000000 N
   0.0744000000000000    0.7655500000000000    0.9689000000000000 N
   0.1601000000000000    0.7931500000000000    0.9896000000000000 N
   0.7104200000000001    0.4820500000000000    0.7649000000000000 N
   0.6293000000000000    0.5103000000000000    0.8025000000000000 N
   0.8340000000000000    0.4700000000000000    0.8694000000000000 N
   0.8200000000000000    0.4929500000000000    0.9628000000000000 N
   0.8268000000000000    0.5926000000000000    0.7580000000000000 N
   0.8030000000000000    0.6743000000000000    0.7982000000000000 N
   0.4476000000000000    0.4628500000000000    0.5665000000000000 O
   0.5400000000000000    0.4197500000000000    0.6703000000000000 O
   0.5155999999999999    0.2476500000000000    0.7425000000000000 O
   0.4111000000000000    0.1607000000000000    0.6897000000000000 O
   0.3162800000000000    0.3652500000000000    0.4599000000000000 O
   0.2945000000000000    0.2419000000000000    0.5331000000000000 O
   0.9050000000000000    0.0762000000000000    0.2673000000000000 O
   0.9019000000000000    0.9637000000000000    0.3636000000000000 O
   0.7383999999999999    0.9517000000000000    0.5032000000000000 O
   0.6298100000000000    0.0468500000000000    0.4983000000000000 O
   0.6496000000000000    0.2021500000000000    0.3603000000000000 O
   0.7591000000000000    0.2138500000000000    0.2645000000000000 O
   0.5524000000000000    0.0371500000000000    0.0665000000000000 O
   0.4600000000000000    0.0802500000000000    0.1703000000000000 O
   0.4844000000000000    0.2523500000000000    0.2425000000000000 O
   0.5889000000000000    0.3393000000000000    0.1897000000000000 O
   0.6837200000000000    0.1347500000000000    0.9599000000000000 O
   0.7055000000000000    0.2581000000000000    0.0331000000000000 O
   0.0950000000000000    0.4238000000000000    0.7673000000000000 O
   0.0981000000000000    0.5363000000000000    0.8636000000000000 O
   0.2616000000000000    0.5483000000000000    0.0032000000000001 O
   0.3701900000000000    0.4531500000000000    0.9983000000000000 O
   0.3504000000000000    0.2978500000000000    0.8603000000000000 O
   0.2409000000000000    0.2861500000000000    0.7645000000000000 O
   0.9476000000000000    0.0371500000000000    0.5665000000000000 O
   0.0400000000000000    0.0802500000000000    0.6703000000000000 O
   0.0156000000000001    0.2523500000000000    0.7425000000000000 O
   0.9111000000000000    0.3393000000000000    0.6897000000000000 O
   0.8162800000000000    0.1347500000000000    0.4599000000000000 O
   0.7945000000000000    0.2581000000000000    0.5331000000000000 O
   0.4050000000000000    0.4238000000000000    0.2673000000000000 O
   0.4019000000000000    0.5363000000000000    0.3636000000000000 O
   0.2384000000000000    0.5483000000000000    0.5032000000000000 O
   0.1298100000000000    0.4531500000000000    0.4983000000000000 O
   0.1496000000000000    0.2978500000000000    0.3603000000000000 O
   0.2591000000000000    0.2861500000000000    0.2645000000000000 O
   0.0524000000000000    0.4628500000000000    0.0665000000000000 O
   0.9600000000000000    0.4197500000000000    0.1703000000000000 O
   0.9844000000000001    0.2476500000000000    0.2425000000000000 O
   0.0889000000000000    0.1607000000000000    0.1897000000000000 O
   0.1837200000000000    0.3652500000000000    0.9599000000000000 O
   0.2055000000000000    0.2419000000000000    0.0331000000000000 O
   0.5950000000000000    0.0762000000000000    0.7673000000000000 O
   0.5981000000000000    0.9637000000000000    0.8636000000000000 O
   0.7616000000000001    0.9517000000000000    0.0032000000000001 O
   0.8701900000000000    0.0468500000000000    0.9983000000000000 O
   0.8504000000000000    0.2021500000000000    0.8603000000000000 O
   0.7409000000000000    0.2138500000000000    0.7645000000000000 O
   0.4476000000000000    0.9628500000000000    0.5665000000000000 O
   0.5400000000000000    0.9197500000000000    0.6703000000000000 O
   0.5155999999999999    0.7476500000000000    0.7425000000000000 O
   0.4111000000000000    0.6607000000000000    0.6897000000000000 O
   0.3162800000000000    0.8652500000000000    0.4599000000000000 O
   0.2945000000000000    0.7419000000000000    0.5331000000000000 O
   0.9050000000000000    0.5762000000000000    0.2673000000000000 O
   0.9019000000000000    0.4637000000000000    0.3636000000000000 O
   0.7383999999999999    0.4517000000000000    0.5032000000000000 O
   0.6298100000000000    0.5468499999999999    0.4983000000000000 O
   0.6496000000000000    0.7021500000000001    0.3603000000000000 O
   0.7591000000000000    0.7138500000000000    0.2645000000000000 O
   0.5524000000000000    0.5371500000000000    0.0665000000000000 O
   0.4600000000000000    0.5802500000000000    0.1703000000000000 O
   0.4844000000000000    0.7523500000000000    0.2425000000000000 O
   0.5889000000000000    0.8393000000000000    0.1897000000000000 O
   0.6837200000000000    0.6347500000000000    0.9599000000000000 O
   0.7055000000000000    0.7581000000000000    0.0331000000000000 O
   0.0950000000000000    0.9238000000000000    0.7673000000000000 O
   0.0981000000000000    0.0363000000000000    0.8636000000000000 O
   0.2616000000000000    0.0483000000000000    0.0032000000000001 O
   0.3701900000000000    0.9531500000000001    0.9983000000000000 O
   0.3504000000000000    0.7978499999999999    0.8603000000000000 O
   0.2409000000000000    0.7861500000000000    0.7645000000000000 O
   0.9476000000000000    0.5371500000000000    0.5665000000000000 O
   0.0400000000000000    0.5802500000000000    0.6703000000000000 O
   0.0156000000000001    0.7523500000000000    0.7425000000000000 O
   0.9111000000000000    0.8393000000000000    0.6897000000000000 O
   0.8162800000000000    0.6347500000000000    0.4599000000000000 O
   0.7945000000000000    0.7581000000000000    0.5331000000000000 O
   0.4050000000000000    0.9238000000000000    0.2673000000000000 O
   0.4019000000000000    0.0363000000000000    0.3636000000000000 O
   0.2384000000000000    0.0483000000000000    0.5032000000000000 O
   0.1298100000000000    0.9531500000000001    0.4983000000000000 O
   0.1496000000000000    0.7978499999999999    0.3603000000000000 O
   0.2591000000000000    0.7861500000000000    0.2645000000000000 O
   0.0524000000000000    0.9628500000000000    0.0665000000000000 O
   0.9600000000000000    0.9197500000000000    0.1703000000000000 O
   0.9844000000000001    0.7476500000000000    0.2425000000000000 O
   0.0889000000000000    0.6607000000000000    0.1897000000000000 O
   0.1837200000000000    0.8652500000000000    0.9599000000000000 O
   0.2055000000000000    0.7419000000000000    0.0331000000000000 O
   0.5950000000000000    0.5762000000000000    0.7673000000000000 O
   0.5981000000000000    0.4637000000000000    0.8636000000000000 O
   0.7616000000000001    0.4517000000000000    0.0032000000000001 O
   0.8701900000000000    0.5468499999999999    0.9983000000000000 O
   0.8504000000000000    0.7021500000000001    0.8603000000000000 O
   0.7409000000000000    0.7138500000000000    0.7645000000000000 O
