Ag32 N96
1.0
  11.1799999999999997    0.0000000000000000    0.0000000000000007
  -0.0000000000000007   11.8800000000000008    0.0000000000000007
   0.0000000000000000    0.0000000000000000   12.0999999999999996
Ag N
32 96
direct
   0.2500000000000000    0.0000000000000000    0.1250000000000000 Ag
   0.0000000000000000    0.2500000000000000    0.3750000000000000 Ag
   0.2500000000000000    0.0000000000000000    0.3750000000000000 Ag
   0.0000000000000000    0.2500000000000000    0.1250000000000000 Ag
   0.7500000000000000    0.0000000000000000    0.1250000000000000 Ag
   0.5000000000000000    0.2500000000000000    0.3750000000000000 Ag
   0.7500000000000000    0.0000000000000000    0.3750000000000000 Ag
   0.5000000000000000    0.2500000000000000    0.1250000000000000 Ag
   0.2500000000000000    0.5000000000000000    0.1250000000000000 Ag
   0.0000000000000000    0.7500000000000000    0.3750000000000000 Ag
   0.2500000000000000    0.5000000000000000    0.3750000000000000 Ag
   0.0000000000000000    0.7500000000000000    0.1250000000000000 Ag
   0.7500000000000000    0.5000000000000000    0.1250000000000000 Ag
   0.5000000000000000    0.7500000000000000    0.3750000000000000 Ag
   0.7500000000000000    0.5000000000000000    0.3750000000000000 Ag
   0.5000000000000000    0.7500000000000000    0.1250000000000000 Ag
   0.2500000000000000    0.0000000000000000    0.6250000000000000 Ag
   0.0000000000000000    0.2500000000000000    0.8750000000000000 Ag
   0.2500000000000000    0.0000000000000000    0.8750000000000000 Ag
   0.0000000000000000    0.2500000000000000    0.6250000000000000 Ag
   0.7500000000000000    0.0000000000000000    0.6250000000000000 Ag
   0.5000000000000000    0.2500000000000000    0.8750000000000000 Ag
   0.7500000000000000    0.0000000000000000    0.8750000000000000 Ag
   0.5000000000000000    0.2500000000000000    0.6250000000000000 Ag
   0.2500000000000000    0.5000000000000000    0.6250000000000000 Ag
   0.0000000000000000    0.7500000000000000    0.8750000000000000 Ag
   0.2500000000000000    0.5000000000000000    0.8750000000000000 Ag
   0.0000000000000000    0.7500000000000000    0.6250000000000000 Ag
   0.7500000000000000    0.5000000000000000    0.6250000000000000 Ag
   0.5000000000000000    0.7500000000000000    0.8750000000000000 Ag
   0.7500000000000000    0.5000000000000000    0.8750000000000000 Ag
   0.5000000000000000    0.7500000000000000    0.6250000000000000 Ag
   0.0000000000000000    0.0000000000000000    0.0000000000000000 N
   0.2500000000000000    0.2500000000000000    0.2500000000000000 N
   0.2500000000000000    0.2500000000000000    0.0000000000000000 N
   0.0000000000000000    0.0000000000000000    0.2500000000000000 N
   0.0725000000000000    0.0725000000000000    0.0000000000000000 N
   0.3225000000000000    0.3225000000000000    0.2500000000000000 N
   0.9275000000000000    0.9275000000000000    0.0000000000000000 N
   0.1775000000000000    0.1775000000000000    0.2500000000000000 N
   0.1775000000000000    0.3225000000000000    0.0000000000000000 N
   0.9275000000000000    0.0725000000000000    0.2500000000000000 N
   0.3225000000000000    0.1775000000000000    0.0000000000000000 N
   0.0725000000000000    0.9275000000000000    0.2500000000000000 N
   0.5000000000000000    0.0000000000000000    0.0000000000000000 N
   0.7500000000000000    0.2500000000000000    0.2500000000000000 N
   0.7500000000000000    0.2500000000000000    0.0000000000000000 N
   0.5000000000000000    0.0000000000000000    0.2500000000000000 N
   0.5725000000000000    0.0725000000000000    0.0000000000000000 N
   0.8225000000000000    0.3225000000000000    0.2500000000000000 N
   0.4275000000000000    0.9275000000000000    0.0000000000000000 N
   0.6775000000000000    0.1775000000000000    0.2500000000000000 N
   0.6775000000000000    0.3225000000000000    0.0000000000000000 N
   0.4275000000000000    0.0725000000000000    0.2500000000000000 N
   0.8225000000000000    0.1775000000000000    0.0000000000000000 N
   0.5725000000000000    0.9275000000000000    0.2500000000000000 N
   0.0000000000000000    0.5000000000000000    0.0000000000000000 N
   0.2500000000000000    0.7500000000000000    0.2500000000000000 N
   0.2500000000000000    0.7500000000000000    0.0000000000000000 N
   0.0000000000000000    0.5000000000000000    0.2500000000000000 N
   0.0725000000000000    0.5725000000000000    0.0000000000000000 N
   0.3225000000000000    0.8225000000000000    0.2500000000000000 N
   0.9275000000000000    0.4275000000000000    0.0000000000000000 N
   0.1775000000000000    0.6775000000000000    0.2500000000000000 N
   0.1775000000000000    0.8225000000000000    0.0000000000000000 N
   0.9275000000000000    0.5725000000000000    0.2500000000000000 N
   0.3225000000000000    0.6775000000000000    0.0000000000000000 N
   0.0725000000000000    0.4275000000000000    0.2500000000000000 N
   0.5000000000000000    0.5000000000000000    0.0000000000000000 N
   0.7500000000000000    0.7500000000000000    0.2500000000000000 N
   0.7500000000000000    0.7500000000000000    0.0000000000000000 N
   0.5000000000000000    0.5000000000000000    0.2500000000000000 N
   0.5725000000000000    0.5725000000000000    0.0000000000000000 N
   0.8225000000000000    0.8225000000000000    0.2500000000000000 N
   0.4275000000000000    0.4275000000000000    0.0000000000000000 N
   0.6775000000000000    0.6775000000000000    0.2500000000000000 N
   0.6775000000000000    0.8225000000000000    0.0000000000000000 N
   0.4275000000000000    0.5725000000000000    0.2500000000000000 N
   0.8225000000000000    0.6775000000000000    0.0000000000000000 N
   0.5725000000000000    0.4275000000000000    0.2500000000000000 N
   0.0000000000000000    0.0000000000000000    0.5000000000000000 N
   0.2500000000000000    0.2500000000000000    0.7500000000000000 N
   0.2500000000000000    0.2500000000000000    0.5000000000000000 N
   0.0000000000000000    0.0000000000000000    0.7500000000000000 N
   0.0725000000000000    0.0725000000000000    0.5000000000000000 N
   0.3225000000000000    0.3225000000000000    0.7500000000000000 N
   0.9275000000000000    0.9275000000000000    0.5000000000000000 N
   0.1775000000000000    0.1775000000000000    0.7500000000000000 N
   0.1775000000000000    0.3225000000000000    0.5000000000000000 N
   0.9275000000000000    0.0725000000000000    0.7500000000000000 N
   0.3225000000000000    0.1775000000000000    0.5000000000000000 N
   0.0725000000000000    0.9275000000000000    0.7500000000000000 N
   0.5000000000000000    0.0000000000000000    0.5000000000000000 N
   0.7500000000000000    0.2500000000000000    0.7500000000000000 N
   0.7500000000000000    0.2500000000000000    0.5000000000000000 N
   0.5000000000000000    0.0000000000000000    0.7500000000000000 N
   0.5725000000000000    0.0725000000000000    0.5000000000000000 N
   0.8225000000000000    0.3225000000000000    0.7500000000000000 N
   0.4275000000000000    0.9275000000000000    0.5000000000000000 N
   0.6775000000000000    0.1775000000000000    0.7500000000000000 N
   0.6775000000000000    0.3225000000000000    0.5000000000000000 N
   0.4275000000000000    0.0725000000000000    0.7500000000000000 N
   0.8225000000000000    0.1775000000000000    0.5000000000000000 N
   0.5725000000000000    0.9275000000000000    0.7500000000000000 N
   0.0000000000000000    0.5000000000000000    0.5000000000000000 N
   0.2500000000000000    0.7500000000000000    0.7500000000000000 N
   0.2500000000000000    0.7500000000000000    0.5000000000000000 N
   0.0000000000000000    0.5000000000000000    0.7500000000000000 N
   0.0725000000000000    0.5725000000000000    0.5000000000000000 N
   0.3225000000000000    0.8225000000000000    0.7500000000000000 N
   0.9275000000000000    0.4275000000000000    0.5000000000000000 N
   0.1775000000000000    0.6775000000000000    0.7500000000000000 N
   0.1775000000000000    0.8225000000000000    0.5000000000000000 N
   0.9275000000000000    0.5725000000000000    0.7500000000000000 N
   0.3225000000000000    0.6775000000000000    0.5000000000000000 N
   0.0725000000000000    0.4275000000000000    0.7500000000000000 N
   0.5000000000000000    0.5000000000000000    0.5000000000000000 N
   0.7500000000000000    0.7500000000000000    0.7500000000000000 N
   0.7500000000000000    0.7500000000000000    0.5000000000000000 N
   0.5000000000000000    0.5000000000000000    0.7500000000000000 N
   0.5725000000000000    0.5725000000000000    0.5000000000000000 N
   0.8225000000000000    0.8225000000000000    0.7500000000000000 N
   0.4275000000000000    0.4275000000000000    0.5000000000000000 N
   0.6775000000000000    0.6775000000000000    0.7500000000000000 N
   0.6775000000000000    0.8225000000000000    0.5000000000000000 N
   0.4275000000000000    0.5725000000000000    0.7500000000000000 N
   0.8225000000000000    0.6775000000000000    0.5000000000000000 N
   0.5725000000000000    0.4275000000000000    0.7500000000000000 N
