H76 C24 N16 Cl12 O48
1.0
   9.1639070231046986    0.0000000000000000   -4.8706895283822398
  -0.0000000000000010   16.1009999999999991    0.0000000000000010
   0.0000000000000000    0.0000000000000000   10.5868000000000002
H C N Cl O
76 24 16 12 48
direct
   0.0274000000000000    0.0804000000000000    0.0281000000000000 H
   0.1373000000000000    0.0149500000000000    0.0966000000000000 H
   0.3320000000000000    0.2362500000000000    0.6707000000000000 H
   0.3227000000000000    0.3071000000000000    0.4731000000000000 H
   0.4853000000000000    0.3071000000000000    0.5998000000000000 H
   0.1464000000000000    0.3081500000000000    0.6888000000000000 H
   0.1171000000000000    0.3081500000000000    0.5275000000000000 H
   0.5304000000000000    0.3072000000000000    0.8496000000000000 H
   0.3972000000000000    0.3072000000000000    0.8844000000000000 H
   0.9726000000000000    0.3304000000000000    0.9719000000000000 H
   0.8627000000000000    0.2649500000000000    0.9034000000000000 H
   0.6680000000000000    0.9862500000000000    0.3293000000000000 H
   0.6773000000000000    0.0571000000000000    0.5269000000000000 H
   0.5147000000000000    0.0571000000000000    0.4002000000000000 H
   0.8536000000000000    0.0581500000000000    0.3112000000000000 H
   0.8829000000000000    0.0581500000000000    0.4725000000000000 H
   0.4696000000000000    0.0572000000000000    0.1504000000000000 H
   0.6028000000000000    0.0572000000000000    0.1156000000000000 H
   0.9726000000000000    0.9196000000000000    0.9719000000000000 H
   0.8627000000000000    0.9850500000000000    0.9034000000000000 H
   0.9870000000000000    0.9786500000000000    0.8733000000000000 H
   0.6680000000000000    0.2637500000000000    0.3293000000000000 H
   0.6773000000000000    0.1929000000000000    0.5269000000000000 H
   0.5147000000000000    0.1929000000000000    0.4002000000000000 H
   0.8536000000000000    0.1918500000000000    0.3112000000000000 H
   0.8829000000000000    0.1918500000000000    0.4725000000000000 H
   0.4696000000000000    0.1928000000000000    0.1504000000000000 H
   0.6028000000000000    0.1928000000000000    0.1156000000000000 H
   0.0274000000000000    0.1696000000000000    0.0281000000000000 H
   0.1373000000000000    0.2350500000000000    0.0966000000000000 H
   0.0130000000000000    0.2286500000000000    0.1267000000000000 H
   0.3320000000000000    0.5137500000000000    0.6707000000000000 H
   0.3227000000000000    0.4429000000000000    0.4731000000000000 H
   0.4853000000000000    0.4429000000000000    0.5998000000000000 H
   0.1464000000000000    0.4418500000000000    0.6888000000000000 H
   0.1171000000000000    0.4418500000000000    0.5275000000000000 H
   0.5304000000000000    0.4428000000000000    0.8496000000000000 H
   0.3972000000000000    0.4428000000000000    0.8844000000000000 H
   0.1373000000000000    0.5149500000000000    0.0966000000000000 H
   0.0130000000000000    0.5213500000000000    0.1267000000000000 H
   0.3320000000000000    0.7362500000000000    0.6707000000000000 H
   0.3227000000000000    0.8071000000000000    0.4731000000000000 H
   0.4853000000000000    0.8071000000000000    0.5998000000000000 H
   0.1464000000000000    0.8081500000000000    0.6888000000000000 H
   0.1171000000000000    0.8081500000000000    0.5275000000000000 H
   0.5304000000000000    0.8072000000000000    0.8496000000000000 H
   0.3972000000000000    0.8072000000000000    0.8844000000000000 H
   0.8627000000000000    0.7649500000000000    0.9034000000000000 H
   0.9870000000000000    0.7713500000000000    0.8733000000000000 H
   0.6680000000000000    0.4862500000000000    0.3293000000000000 H
   0.6773000000000000    0.5571000000000000    0.5269000000000000 H
   0.5147000000000000    0.5571000000000000    0.4002000000000000 H
   0.8536000000000000    0.5581500000000000    0.3112000000000000 H
   0.8829000000000000    0.5581500000000000    0.4725000000000000 H
   0.4696000000000000    0.5572000000000000    0.1504000000000000 H
   0.6028000000000000    0.5572000000000000    0.1156000000000000 H
   0.9726000000000000    0.4196000000000000    0.9719000000000000 H
   0.8627000000000000    0.4850500000000000    0.9034000000000000 H
   0.9870000000000000    0.4786500000000000    0.8733000000000000 H
   0.6680000000000000    0.7637500000000000    0.3293000000000000 H
   0.6773000000000000    0.6929000000000000    0.5269000000000000 H
   0.5147000000000000    0.6929000000000000    0.4002000000000000 H
   0.8536000000000000    0.6918500000000000    0.3112000000000000 H
   0.8829000000000000    0.6918500000000000    0.4725000000000000 H
   0.4696000000000000    0.6928000000000000    0.1504000000000000 H
   0.6028000000000000    0.6928000000000000    0.1156000000000000 H
   0.0274000000000000    0.6696000000000000    0.0281000000000000 H
   0.1373000000000000    0.7350500000000000    0.0966000000000000 H
   0.0130000000000000    0.7286500000000000    0.1267000000000000 H
   0.3320000000000000    0.0137499999999999    0.6707000000000000 H
   0.3227000000000000    0.9429000000000000    0.4731000000000000 H
   0.4853000000000000    0.9429000000000000    0.5998000000000000 H
   0.1464000000000000    0.9418500000000000    0.6888000000000000 H
   0.1171000000000000    0.9418500000000000    0.5275000000000000 H
   0.5304000000000000    0.9428000000000000    0.8496000000000000 H
   0.3972000000000000    0.9428000000000000    0.8844000000000000 H
   0.3864000000000000    0.3278500000000000    0.5697000000000000 C
   0.1822000000000000    0.3287000000000000    0.6239000000000000 C
   0.4311000000000000    0.3279000000000000    0.8181000000000000 C
   0.6136000000000000    0.0778500000000000    0.4303000000000000 C
   0.8178000000000000    0.0787000000000000    0.3761000000000000 C
   0.5689000000000000    0.0779000000000000    0.1819000000000000 C
   0.6136000000000000    0.1721500000000000    0.4303000000000000 C
   0.8178000000000000    0.1713000000000000    0.3761000000000000 C
   0.5689000000000000    0.1721000000000000    0.1819000000000000 C
   0.3864000000000000    0.4221500000000000    0.5697000000000000 C
   0.1822000000000000    0.4213000000000000    0.6239000000000000 C
   0.4311000000000000    0.4221000000000000    0.8181000000000000 C
   0.3864000000000000    0.8278500000000000    0.5697000000000000 C
   0.1822000000000000    0.8287000000000000    0.6239000000000000 C
   0.4311000000000000    0.8279000000000000    0.8181000000000000 C
   0.6136000000000000    0.5778500000000000    0.4303000000000000 C
   0.8178000000000000    0.5787000000000000    0.3761000000000000 C
   0.5689000000000000    0.5779000000000000    0.1819000000000000 C
   0.6136000000000000    0.6721500000000000    0.4303000000000000 C
   0.8178000000000000    0.6713000000000000    0.3761000000000000 C
   0.5689000000000000    0.6721000000000000    0.1819000000000000 C
   0.3864000000000000    0.9221500000000000    0.5697000000000000 C
   0.1822000000000000    0.9213000000000000    0.6239000000000000 C
   0.4311000000000000    0.9221000000000000    0.8181000000000000 C
   0.0418000000000000    0.0275000000000000    0.0592000000000000 N
   0.3328000000000000    0.2977500000000000    0.6708000000000000 N
   0.9582000000000001    0.2775000000000000    0.9408000000000000 N
   0.6672000000000000    0.0477500000000000    0.3292000000000000 N
   0.9582000000000001    0.9725000000000000    0.9408000000000000 N
   0.6672000000000000    0.2022500000000000    0.3292000000000000 N
   0.0418000000000000    0.2225000000000000    0.0592000000000000 N
   0.3328000000000000    0.4522500000000000    0.6708000000000000 N
   0.0418000000000000    0.5275000000000000    0.0592000000000000 N
   0.3328000000000000    0.7977500000000000    0.6708000000000000 N
   0.9582000000000001    0.7775000000000000    0.9408000000000000 N
   0.6672000000000000    0.5477500000000000    0.3292000000000000 N
   0.9582000000000001    0.4725000000000000    0.9408000000000000 N
   0.6672000000000000    0.7022500000000000    0.3292000000000000 N
   0.0418000000000000    0.7225000000000000    0.0592000000000000 N
   0.3328000000000000    0.9522500000000000    0.6708000000000000 N
   0.2110400000000000    0.1250000000000000    0.3886900000000000 Cl
   0.6452800000000000    0.1250000000000000    0.8432600000000000 Cl
   0.1476100000000000    0.1250000000000000    0.8104900000000000 Cl
   0.7889600000000000    0.3750000000000000    0.6113100000000000 Cl
   0.3547200000000000    0.3750000000000000    0.1567400000000000 Cl
   0.8523900000000000    0.3750000000000000    0.1895100000000000 Cl
   0.2110400000000000    0.6250000000000000    0.3886900000000000 Cl
   0.6452800000000000    0.6250000000000000    0.8432600000000000 Cl
   0.1476100000000000    0.6250000000000000    0.8104900000000000 Cl
   0.7889600000000000    0.8750000000000000    0.6113100000000000 Cl
   0.3547200000000000    0.8750000000000000    0.1567400000000000 Cl
   0.8523900000000000    0.8750000000000000    0.1895100000000000 Cl
   0.1240000000000000    0.0524500000000000    0.3706000000000000 O
   0.6538000000000000    0.0520500000000000    0.7699000000000000 O
   0.2155000000000000    0.1974500000000000    0.8931000000000000 O
   0.8760000000000000    0.3024500000000000    0.6294000000000000 O
   0.3462000000000000    0.3020500000000000    0.2301000000000000 O
   0.7845000000000000    0.4474500000000000    0.1069000000000000 O
   0.8760000000000000    0.4475500000000000    0.6294000000000000 O
   0.3462000000000000    0.4479500000000000    0.2301000000000000 O
   0.7845000000000000    0.3025500000000000    0.1069000000000000 O
   0.1240000000000000    0.1975500000000000    0.3706000000000000 O
   0.6538000000000000    0.1979500000000000    0.7699000000000000 O
   0.2155000000000000    0.0525500000000000    0.8931000000000000 O
   0.2610000000000000    0.1250000000000000    0.2833000000000000 O
   0.7642000000000000    0.1250000000000000    0.9854000000000001 O
   0.5090000000000000    0.1250000000000000    0.8478000000000000 O
   0.9955000000000001    0.1250000000000000    0.7725000000000000 O
   0.3350000000000000    0.1250000000000000    0.5293000000000000 O
   0.1645000000000000    0.1250000000000000    0.6834000000000000 O
   0.7390000000000000    0.3750000000000000    0.7167000000000000 O
   0.2358000000000000    0.3750000000000000    0.0146000000000000 O
   0.4910000000000000    0.3750000000000000    0.1522000000000000 O
   0.0044999999999999    0.3750000000000000    0.2275000000000000 O
   0.6650000000000000    0.3750000000000000    0.4707000000000000 O
   0.8355000000000000    0.3750000000000000    0.3166000000000000 O
   0.1240000000000000    0.5524500000000000    0.3706000000000000 O
   0.6538000000000000    0.5520500000000000    0.7699000000000000 O
   0.2155000000000000    0.6974500000000000    0.8931000000000000 O
   0.8760000000000000    0.8024500000000000    0.6294000000000000 O
   0.3462000000000000    0.8020500000000000    0.2301000000000000 O
   0.7845000000000000    0.9474500000000000    0.1069000000000000 O
   0.8760000000000000    0.9475500000000000    0.6294000000000000 O
   0.3462000000000000    0.9479500000000000    0.2301000000000000 O
   0.7845000000000000    0.8025500000000000    0.1069000000000000 O
   0.1240000000000000    0.6975500000000000    0.3706000000000000 O
   0.6538000000000000    0.6979500000000000    0.7699000000000000 O
   0.2155000000000000    0.5525500000000000    0.8931000000000000 O
   0.2610000000000000    0.6250000000000000    0.2833000000000000 O
   0.7642000000000000    0.6250000000000000    0.9854000000000001 O
   0.5090000000000000    0.6250000000000000    0.8478000000000000 O
   0.9955000000000001    0.6250000000000000    0.7725000000000000 O
   0.3350000000000000    0.6250000000000000    0.5293000000000000 O
   0.1645000000000000    0.6250000000000000    0.6834000000000000 O
   0.7390000000000000    0.8750000000000000    0.7167000000000000 O
   0.2358000000000000    0.8750000000000000    0.0146000000000000 O
   0.4910000000000000    0.8750000000000000    0.1522000000000000 O
   0.0044999999999999    0.8750000000000000    0.2275000000000000 O
   0.6650000000000000    0.8750000000000000    0.4707000000000000 O
   0.8355000000000000    0.8750000000000000    0.3166000000000000 O
