Pb24 N144
1.0
  13.2599999999999998    0.0000000000000000    0.0000000000000008
  -0.0000000000000010   16.2500000000000000    0.0000000000000010
   0.0000000000000000    0.0000000000000000   11.3100000000000005
Pb N
24 144
direct
   0.1693500000000000    0.0890000000000000    0.1231000000000000 Pb
   0.0806500000000000    0.9110000000000000    0.6231000000000000 Pb
   0.3306500000000000    0.5890000000000000    0.8769000000000000 Pb
   0.4193500000000000    0.4110000000000000    0.3769000000000000 Pb
   0.3306500000000000    0.9110000000000000    0.8769000000000000 Pb
   0.4193500000000000    0.0890000000000000    0.3769000000000000 Pb
   0.1693500000000000    0.4110000000000000    0.1231000000000000 Pb
   0.0806500000000000    0.5890000000000000    0.6231000000000000 Pb
   0.0302500000000000    0.2500000000000000    0.8643999999999999 Pb
   0.2197500000000000    0.7500000000000000    0.3644000000000000 Pb
   0.4697500000000000    0.7500000000000000    0.1356000000000000 Pb
   0.2802500000000000    0.2500000000000000    0.6356000000000001 Pb
   0.6693500000000000    0.0890000000000000    0.1231000000000000 Pb
   0.5806500000000000    0.9110000000000000    0.6231000000000000 Pb
   0.8306500000000000    0.5890000000000000    0.8769000000000000 Pb
   0.9193500000000000    0.4110000000000000    0.3769000000000000 Pb
   0.8306500000000000    0.9110000000000000    0.8769000000000000 Pb
   0.9193500000000000    0.0890000000000000    0.3769000000000000 Pb
   0.6693500000000000    0.4110000000000000    0.1231000000000000 Pb
   0.5806500000000000    0.5890000000000000    0.6231000000000000 Pb
   0.5302500000000000    0.2500000000000000    0.8643999999999999 Pb
   0.7197500000000000    0.7500000000000000    0.3644000000000000 Pb
   0.9697500000000000    0.7500000000000000    0.1356000000000000 Pb
   0.7802500000000000    0.2500000000000000    0.6356000000000001 Pb
   0.0759000000000000    0.1783000000000000    0.2804000000000000 N
   0.2170000000000000    0.9985000000000001    0.7359000000000000 N
   0.1954500000000000    0.0666000000000000    0.7625000000000000 N
   0.1757000000000000    0.1341000000000000    0.7860000000000000 N
   0.4964500000000000    0.1283000000000000    0.0055000000000000 N
   0.4213000000000000    0.0905000000000000    0.0014000000000000 N
   0.3459000000000000    0.0536000000000000    0.9968000000000000 N
   0.1741000000000000    0.8217000000000000    0.7804000000000000 N
   0.0330000000000000    0.0015000000000000    0.2359000000000000 N
   0.0545500000000000    0.9334000000000000    0.2625000000000000 N
   0.0743000000000000    0.8659000000000000    0.2860000000000000 N
   0.2535500000000000    0.8717000000000000    0.5054999999999999 N
   0.3287000000000000    0.9095000000000000    0.5014000000000000 N
   0.4041000000000000    0.9464000000000000    0.4968000000000000 N
   0.4241000000000000    0.6783000000000000    0.7196000000000000 N
   0.2830000000000000    0.4985000000000000    0.2641000000000000 N
   0.3045500000000000    0.5666000000000000    0.2375000000000000 N
   0.3243000000000000    0.6341000000000000    0.2140000000000000 N
   0.0035500000000000    0.6283000000000000    0.9945000000000001 N
   0.0787000000000000    0.5905000000000000    0.9986000000000000 N
   0.1541000000000000    0.5536000000000000    0.0032000000000000 N
   0.3259000000000000    0.3217000000000000    0.2196000000000000 N
   0.4670000000000000    0.5014999999999999    0.7641000000000000 N
   0.4454500000000000    0.4334000000000000    0.7375000000000000 N
   0.4257000000000000    0.3659000000000000    0.7140000000000000 N
   0.2464500000000000    0.3717000000000000    0.4945000000000000 N
   0.1713000000000000    0.4095000000000000    0.4986000000000000 N
   0.0959000000000000    0.4464000000000000    0.5032000000000000 N
   0.4241000000000000    0.8217000000000000    0.7196000000000000 N
   0.2830000000000000    0.0015000000000000    0.2641000000000000 N
   0.3045500000000000    0.9334000000000000    0.2375000000000000 N
   0.3243000000000000    0.8659000000000000    0.2140000000000000 N
   0.0035500000000000    0.8717000000000000    0.9945000000000001 N
   0.0787000000000000    0.9095000000000000    0.9986000000000000 N
   0.1541000000000000    0.9464000000000000    0.0032000000000000 N
   0.3259000000000000    0.1783000000000000    0.2196000000000000 N
   0.4670000000000000    0.9985000000000001    0.7641000000000000 N
   0.4454500000000000    0.0666000000000000    0.7375000000000000 N
   0.4257000000000000    0.1341000000000000    0.7140000000000000 N
   0.2464500000000000    0.1283000000000000    0.4945000000000000 N
   0.1713000000000000    0.0905000000000000    0.4986000000000000 N
   0.0959000000000000    0.0536000000000000    0.5032000000000000 N
   0.0759000000000000    0.3217000000000000    0.2804000000000000 N
   0.2170000000000000    0.5014999999999999    0.7359000000000000 N
   0.1954500000000000    0.4334000000000000    0.7625000000000000 N
   0.1757000000000000    0.3659000000000000    0.7860000000000000 N
   0.4964500000000000    0.3717000000000000    0.0055000000000000 N
   0.4213000000000000    0.4095000000000000    0.0014000000000000 N
   0.3459000000000000    0.4464000000000000    0.9968000000000000 N
   0.1741000000000000    0.6783000000000000    0.7804000000000000 N
   0.0330000000000000    0.4985000000000000    0.2359000000000000 N
   0.0545500000000000    0.5666000000000000    0.2625000000000000 N
   0.0743000000000000    0.6341000000000000    0.2860000000000000 N
   0.2535500000000000    0.6283000000000000    0.5054999999999999 N
   0.3287000000000000    0.5905000000000000    0.5014000000000000 N
   0.4041000000000000    0.5536000000000000    0.4968000000000000 N
   0.0763000000000000    0.2500000000000000    0.2785000000000000 N
   0.1806000000000000    0.2500000000000000    0.0138000000000000 N
   0.2582500000000000    0.2500000000000000    0.9609000000000000 N
   0.3319000000000000    0.2500000000000000    0.9074000000000000 N
   0.1737000000000000    0.7500000000000000    0.7785000000000000 N
   0.0694000000000000    0.7500000000000000    0.5138000000000000 N
   0.4917500000000000    0.7500000000000000    0.4609000000000000 N
   0.4181000000000000    0.7500000000000000    0.4074000000000000 N
   0.4237000000000000    0.7500000000000000    0.7215000000000000 N
   0.3194000000000000    0.7500000000000000    0.9862000000000000 N
   0.2417500000000000    0.7500000000000000    0.0391000000000000 N
   0.1681000000000000    0.7500000000000000    0.0926000000000000 N
   0.3263000000000000    0.2500000000000000    0.2215000000000000 N
   0.4306000000000000    0.2500000000000000    0.4862000000000000 N
   0.0082500000000000    0.2500000000000000    0.5391000000000000 N
   0.0819000000000000    0.2500000000000000    0.5926000000000000 N
   0.5759000000000000    0.1783000000000000    0.2804000000000000 N
   0.7170000000000000    0.9985000000000001    0.7359000000000000 N
   0.6954500000000000    0.0666000000000000    0.7625000000000000 N
   0.6757000000000000    0.1341000000000000    0.7860000000000000 N
   0.9964499999999999    0.1283000000000000    0.0055000000000000 N
   0.9213000000000000    0.0905000000000000    0.0014000000000000 N
   0.8459000000000000    0.0536000000000000    0.9968000000000000 N
   0.6741000000000000    0.8217000000000000    0.7804000000000000 N
   0.5330000000000000    0.0015000000000000    0.2359000000000000 N
   0.5545500000000000    0.9334000000000000    0.2625000000000000 N
   0.5743000000000000    0.8659000000000000    0.2860000000000000 N
   0.7535500000000001    0.8717000000000000    0.5054999999999999 N
   0.8287000000000000    0.9095000000000000    0.5014000000000000 N
   0.9041000000000000    0.9464000000000000    0.4968000000000000 N
   0.9241000000000000    0.6783000000000000    0.7196000000000000 N
   0.7830000000000000    0.4985000000000000    0.2641000000000000 N
   0.8045500000000000    0.5666000000000000    0.2375000000000000 N
   0.8243000000000000    0.6341000000000000    0.2140000000000000 N
   0.5035500000000001    0.6283000000000000    0.9945000000000001 N
   0.5787000000000000    0.5905000000000000    0.9986000000000000 N
   0.6541000000000000    0.5536000000000000    0.0032000000000000 N
   0.8259000000000000    0.3217000000000000    0.2196000000000000 N
   0.9670000000000000    0.5014999999999999    0.7641000000000000 N
   0.9454500000000000    0.4334000000000000    0.7375000000000000 N
   0.9257000000000000    0.3659000000000000    0.7140000000000000 N
   0.7464499999999999    0.3717000000000000    0.4945000000000000 N
   0.6713000000000000    0.4095000000000000    0.4986000000000000 N
   0.5959000000000000    0.4464000000000000    0.5032000000000000 N
   0.9241000000000000    0.8217000000000000    0.7196000000000000 N
   0.7830000000000000    0.0015000000000000    0.2641000000000000 N
   0.8045500000000000    0.9334000000000000    0.2375000000000000 N
   0.8243000000000000    0.8659000000000000    0.2140000000000000 N
   0.5035500000000001    0.8717000000000000    0.9945000000000001 N
   0.5787000000000000    0.9095000000000000    0.9986000000000000 N
   0.6541000000000000    0.9464000000000000    0.0032000000000000 N
   0.8259000000000000    0.1783000000000000    0.2196000000000000 N
   0.9670000000000000    0.9985000000000001    0.7641000000000000 N
   0.9454500000000000    0.0666000000000000    0.7375000000000000 N
   0.9257000000000000    0.1341000000000000    0.7140000000000000 N
   0.7464499999999999    0.1283000000000000    0.4945000000000000 N
   0.6713000000000000    0.0905000000000000    0.4986000000000000 N
   0.5959000000000000    0.0536000000000000    0.5032000000000000 N
   0.5759000000000000    0.3217000000000000    0.2804000000000000 N
   0.7170000000000000    0.5014999999999999    0.7359000000000000 N
   0.6954500000000000    0.4334000000000000    0.7625000000000000 N
   0.6757000000000000    0.3659000000000000    0.7860000000000000 N
   0.9964499999999999    0.3717000000000000    0.0055000000000000 N
   0.9213000000000000    0.4095000000000000    0.0014000000000000 N
   0.8459000000000000    0.4464000000000000    0.9968000000000000 N
   0.6741000000000000    0.6783000000000000    0.7804000000000000 N
   0.5330000000000000    0.4985000000000000    0.2359000000000000 N
   0.5545500000000000    0.5666000000000000    0.2625000000000000 N
   0.5743000000000000    0.6341000000000000    0.2860000000000000 N
   0.7535500000000001    0.6283000000000000    0.5054999999999999 N
   0.8287000000000000    0.5905000000000000    0.5014000000000000 N
   0.9041000000000000    0.5536000000000000    0.4968000000000000 N
   0.5763000000000000    0.2500000000000000    0.2785000000000000 N
   0.6806000000000000    0.2500000000000000    0.0138000000000000 N
   0.7582500000000000    0.2500000000000000    0.9609000000000000 N
   0.8319000000000000    0.2500000000000000    0.9074000000000000 N
   0.6737000000000000    0.7500000000000000    0.7785000000000000 N
   0.5694000000000000    0.7500000000000000    0.5138000000000000 N
   0.9917500000000000    0.7500000000000000    0.4609000000000000 N
   0.9181000000000000    0.7500000000000000    0.4074000000000000 N
   0.9237000000000000    0.7500000000000000    0.7215000000000000 N
   0.8194000000000000    0.7500000000000000    0.9862000000000000 N
   0.7417500000000000    0.7500000000000000    0.0391000000000000 N
   0.6681000000000000    0.7500000000000000    0.0926000000000000 N
   0.8263000000000000    0.2500000000000000    0.2215000000000000 N
   0.9306000000000000    0.2500000000000000    0.4862000000000000 N
   0.5082500000000000    0.2500000000000000    0.5391000000000000 N
   0.5819000000000000    0.2500000000000000    0.5926000000000000 N
