H48 C48 N96 O96
1.0
  19.3859999999999992    0.0000000000000000    0.0000000000000012
  -0.0000000000000007   11.6410000000000000    0.0000000000000007
   0.0000000000000000    0.0000000000000000   12.9900000000000002
H C N O
48 48 96 96
direct
   0.0010000000000000    0.4330000000000000    0.1040000000000000 H
   0.9319999999999999    0.2950000000000000    0.0310000000000000 H
   0.8995000000000000    0.2900000000000000    0.3270000000000000 H
   0.9815000000000000    0.1640000000000000    0.3890000000000000 H
   0.1275000000000000    0.2190000000000000    0.2110000000000000 H
   0.0710000000000000    0.0670000000000000    0.1390000000000000 H
   0.4990000000000000    0.5669999999999999    0.6040000000000000 H
   0.5679999999999999    0.7050000000000000    0.5310000000000000 H
   0.6005000000000000    0.7100000000000000    0.8270000000000000 H
   0.5185000000000000    0.8360000000000000    0.8890000000000000 H
   0.3725000000000000    0.7810000000000000    0.7110000000000000 H
   0.4290000000000000    0.9330000000000001    0.6390000000000000 H
   0.2510000000000000    0.5669999999999999    0.1040000000000000 H
   0.1820000000000000    0.7050000000000000    0.0310000000000000 H
   0.1495000000000000    0.7100000000000000    0.3270000000000000 H
   0.2315000000000000    0.8360000000000000    0.3890000000000000 H
   0.3775000000000000    0.7810000000000000    0.2110000000000000 H
   0.3210000000000000    0.9330000000000001    0.1390000000000000 H
   0.2490000000000000    0.4330000000000000    0.6040000000000000 H
   0.3180000000000000    0.2950000000000000    0.5310000000000000 H
   0.3505000000000000    0.2900000000000000    0.8270000000000000 H
   0.2685000000000000    0.1640000000000000    0.8890000000000000 H
   0.1225000000000000    0.2190000000000000    0.7110000000000000 H
   0.1790000000000000    0.0670000000000000    0.6390000000000000 H
   0.5010000000000000    0.4330000000000000    0.1040000000000000 H
   0.4320000000000000    0.2950000000000000    0.0310000000000000 H
   0.3995000000000000    0.2900000000000000    0.3270000000000000 H
   0.4815000000000000    0.1640000000000000    0.3890000000000000 H
   0.6274999999999999    0.2190000000000000    0.2110000000000000 H
   0.5710000000000000    0.0670000000000000    0.1390000000000000 H
   0.9990000000000000    0.5669999999999999    0.6040000000000000 H
   0.0680000000000001    0.7050000000000000    0.5310000000000000 H
   0.1005000000000000    0.7100000000000000    0.8270000000000000 H
   0.0185000000000000    0.8360000000000000    0.8890000000000000 H
   0.8725000000000001    0.7810000000000000    0.7110000000000000 H
   0.9290000000000000    0.9330000000000001    0.6390000000000000 H
   0.7510000000000000    0.5669999999999999    0.1040000000000000 H
   0.6820000000000001    0.7050000000000000    0.0310000000000000 H
   0.6495000000000000    0.7100000000000000    0.3270000000000000 H
   0.7315000000000000    0.8360000000000000    0.3890000000000000 H
   0.8774999999999999    0.7810000000000000    0.2110000000000000 H
   0.8210000000000000    0.9330000000000001    0.1390000000000000 H
   0.7490000000000000    0.4330000000000000    0.6040000000000000 H
   0.8179999999999999    0.2950000000000000    0.5310000000000000 H
   0.8505000000000000    0.2900000000000000    0.8270000000000000 H
   0.7685000000000000    0.1640000000000000    0.8890000000000000 H
   0.6225000000000001    0.2190000000000000    0.7110000000000000 H
   0.6790000000000000    0.0670000000000000    0.6390000000000000 H
   0.0016500000000000    0.3715000000000000    0.1455000000000000 C
   0.9580500000000000    0.2709000000000000    0.0993000000000000 C
   0.9368000000000000    0.2783000000000000    0.2776000000000000 C
   0.9922500000000000    0.1904000000000000    0.3208000000000000 C
   0.0866000000000000    0.2325000000000000    0.2093000000000000 C
   0.0442500000000000    0.1327000000000000    0.1592000000000000 C
   0.4983500000000000    0.6284999999999999    0.6455000000000000 C
   0.5419500000000000    0.7291000000000000    0.5993000000000001 C
   0.5632000000000000    0.7217000000000000    0.7776000000000000 C
   0.5077500000000000    0.8096000000000000    0.8208000000000000 C
   0.4134000000000000    0.7675000000000000    0.7093000000000000 C
   0.4557500000000000    0.8673000000000000    0.6592000000000000 C
   0.2516500000000000    0.6284999999999999    0.1455000000000000 C
   0.2080500000000000    0.7291000000000000    0.0993000000000000 C
   0.1868000000000000    0.7217000000000000    0.2776000000000000 C
   0.2422500000000000    0.8096000000000000    0.3208000000000000 C
   0.3366000000000000    0.7675000000000000    0.2093000000000000 C
   0.2942500000000000    0.8673000000000000    0.1592000000000000 C
   0.2483500000000000    0.3715000000000000    0.6455000000000000 C
   0.2919500000000000    0.2709000000000000    0.5993000000000001 C
   0.3132000000000000    0.2783000000000000    0.7776000000000000 C
   0.2577500000000000    0.1904000000000000    0.8208000000000000 C
   0.1634000000000000    0.2325000000000000    0.7093000000000000 C
   0.2057500000000000    0.1327000000000000    0.6592000000000000 C
   0.5016500000000000    0.3715000000000000    0.1455000000000000 C
   0.4580500000000000    0.2709000000000000    0.0993000000000000 C
   0.4368000000000000    0.2783000000000000    0.2776000000000000 C
   0.4922500000000000    0.1904000000000000    0.3208000000000000 C
   0.5866000000000000    0.2325000000000000    0.2093000000000000 C
   0.5442500000000000    0.1327000000000000    0.1592000000000000 C
   0.9983500000000000    0.6284999999999999    0.6455000000000000 C
   0.0419499999999999    0.7291000000000000    0.5993000000000001 C
   0.0631999999999999    0.7217000000000000    0.7776000000000000 C
   0.0077499999999999    0.8096000000000000    0.8208000000000000 C
   0.9134000000000000    0.7675000000000000    0.7093000000000000 C
   0.9557500000000000    0.8673000000000000    0.6592000000000000 C
   0.7516500000000000    0.6284999999999999    0.1455000000000000 C
   0.7080500000000000    0.7291000000000000    0.0993000000000000 C
   0.6868000000000000    0.7217000000000000    0.2776000000000000 C
   0.7422500000000000    0.8096000000000000    0.3208000000000000 C
   0.8366000000000000    0.7675000000000000    0.2093000000000000 C
   0.7942500000000000    0.8673000000000000    0.1592000000000000 C
   0.7483500000000000    0.3715000000000000    0.6455000000000000 C
   0.7919500000000000    0.2709000000000000    0.5993000000000001 C
   0.8132000000000000    0.2783000000000000    0.7776000000000000 C
   0.7577500000000000    0.1904000000000000    0.8208000000000000 C
   0.6634000000000000    0.2325000000000000    0.7093000000000000 C
   0.7057500000000000    0.1327000000000000    0.6592000000000000 C
   0.9676000000000000    0.3867000000000000    0.2456000000000000 N
   0.9103000000000000    0.2364000000000000    0.1814000000000000 N
   0.0039500000000000    0.1782000000000000    0.0769000000000000 N
   0.0033500000000000    0.0942000000000000    0.2491000000000000 N
   0.0725500000000000    0.3348000000000000    0.1526000000000000 N
   0.0596500000000000    0.2436000000000000    0.3148000000000000 N
   0.9999500000000000    0.4524000000000000    0.3215000000000000 N
   0.8379500000000000    0.2467000000000000    0.1620000000000000 N
   0.9879500000000000    0.1053000000000000    0.9928000000000000 N
   0.9509000000000000    0.0163000000000000    0.2338000000000000 N
   0.1252000000000000    0.4120000000000000    0.1300000000000000 N
   0.1073000000000000    0.2231000000000000    0.3952000000000000 N
   0.5324000000000000    0.6133000000000000    0.7456000000000000 N
   0.5897000000000000    0.7635999999999999    0.6814000000000000 N
   0.4960500000000000    0.8218000000000000    0.5769000000000000 N
   0.4966500000000000    0.9058000000000000    0.7491000000000000 N
   0.4274500000000000    0.6652000000000000    0.6526000000000000 N
   0.4403500000000000    0.7564000000000000    0.8148000000000000 N
   0.5000500000000000    0.5476000000000000    0.8215000000000000 N
   0.6620500000000000    0.7533000000000000    0.6620000000000000 N
   0.5120500000000000    0.8947000000000001    0.4928000000000000 N
   0.5491000000000000    0.9837000000000000    0.7338000000000000 N
   0.3748000000000000    0.5880000000000000    0.6300000000000000 N
   0.3927000000000000    0.7769000000000000    0.8952000000000000 N
   0.2176000000000000    0.6133000000000000    0.2456000000000000 N
   0.1603000000000000    0.7635999999999999    0.1814000000000000 N
   0.2539500000000000    0.8218000000000000    0.0769000000000000 N
   0.2533500000000000    0.9058000000000000    0.2491000000000000 N
   0.3225500000000000    0.6652000000000000    0.1526000000000000 N
   0.3096500000000000    0.7564000000000000    0.3148000000000000 N
   0.2499500000000000    0.5476000000000000    0.3215000000000000 N
   0.0879500000000000    0.7533000000000000    0.1620000000000000 N
   0.2379500000000000    0.8947000000000001    0.9928000000000000 N
   0.2009000000000000    0.9837000000000000    0.2338000000000000 N
   0.3752000000000000    0.5880000000000000    0.1300000000000000 N
   0.3573000000000000    0.7769000000000000    0.3952000000000000 N
   0.2824000000000000    0.3867000000000000    0.7456000000000000 N
   0.3397000000000000    0.2364000000000000    0.6814000000000000 N
   0.2460500000000000    0.1782000000000000    0.5769000000000000 N
   0.2466500000000000    0.0942000000000000    0.7491000000000000 N
   0.1774500000000000    0.3348000000000000    0.6526000000000000 N
   0.1903500000000000    0.2436000000000000    0.8148000000000000 N
   0.2500500000000000    0.4524000000000000    0.8215000000000000 N
   0.4120500000000000    0.2467000000000000    0.6620000000000000 N
   0.2620500000000000    0.1053000000000000    0.4928000000000000 N
   0.2991000000000000    0.0163000000000000    0.7338000000000000 N
   0.1248000000000000    0.4120000000000000    0.6300000000000000 N
   0.1427000000000000    0.2231000000000000    0.8952000000000000 N
   0.4676000000000000    0.3867000000000000    0.2456000000000000 N
   0.4103000000000000    0.2364000000000000    0.1814000000000000 N
   0.5039500000000000    0.1782000000000000    0.0769000000000000 N
   0.5033500000000000    0.0942000000000000    0.2491000000000000 N
   0.5725500000000000    0.3348000000000000    0.1526000000000000 N
   0.5596500000000000    0.2436000000000000    0.3148000000000000 N
   0.4999500000000000    0.4524000000000000    0.3215000000000000 N
   0.3379500000000000    0.2467000000000000    0.1620000000000000 N
   0.4879500000000000    0.1053000000000000    0.9928000000000000 N
   0.4509000000000000    0.0163000000000000    0.2338000000000000 N
   0.6252000000000000    0.4120000000000000    0.1300000000000000 N
   0.6073000000000000    0.2231000000000000    0.3952000000000000 N
   0.0324000000000000    0.6133000000000000    0.7456000000000000 N
   0.0896999999999999    0.7635999999999999    0.6814000000000000 N
   0.9960500000000000    0.8218000000000000    0.5769000000000000 N
   0.9966500000000000    0.9058000000000000    0.7491000000000000 N
   0.9274500000000000    0.6652000000000000    0.6526000000000000 N
   0.9403500000000000    0.7564000000000000    0.8148000000000000 N
   0.0000500000000001    0.5476000000000000    0.8215000000000000 N
   0.1620500000000000    0.7533000000000000    0.6620000000000000 N
   0.0120499999999999    0.8947000000000001    0.4928000000000000 N
   0.0490999999999999    0.9837000000000000    0.7338000000000000 N
   0.8748000000000000    0.5880000000000000    0.6300000000000000 N
   0.8927000000000000    0.7769000000000000    0.8952000000000000 N
   0.7176000000000000    0.6133000000000000    0.2456000000000000 N
   0.6603000000000000    0.7635999999999999    0.1814000000000000 N
   0.7539500000000000    0.8218000000000000    0.0769000000000000 N
   0.7533500000000000    0.9058000000000000    0.2491000000000000 N
   0.8225500000000000    0.6652000000000000    0.1526000000000000 N
   0.8096500000000000    0.7564000000000000    0.3148000000000000 N
   0.7499500000000000    0.5476000000000000    0.3215000000000000 N
   0.5879500000000000    0.7533000000000000    0.1620000000000000 N
   0.7379500000000000    0.8947000000000001    0.9928000000000000 N
   0.7009000000000000    0.9837000000000000    0.2338000000000000 N
   0.8752000000000000    0.5880000000000000    0.1300000000000000 N
   0.8573000000000000    0.7769000000000000    0.3952000000000000 N
   0.7824000000000000    0.3867000000000000    0.7456000000000000 N
   0.8397000000000000    0.2364000000000000    0.6814000000000000 N
   0.7460500000000000    0.1782000000000000    0.5769000000000000 N
   0.7466500000000000    0.0942000000000000    0.7491000000000000 N
   0.6774500000000000    0.3348000000000000    0.6526000000000000 N
   0.6903500000000000    0.2436000000000000    0.8148000000000000 N
   0.7500500000000000    0.4524000000000000    0.8215000000000000 N
   0.9120500000000000    0.2467000000000000    0.6620000000000000 N
   0.7620500000000000    0.1053000000000000    0.4928000000000000 N
   0.7991000000000000    0.0163000000000000    0.7338000000000000 N
   0.6248000000000000    0.4120000000000000    0.6300000000000000 N
   0.6427000000000000    0.2231000000000000    0.8952000000000000 N
   0.9795500000000000    0.4394000000000000    0.4089000000000000 O
   0.0451000000000000    0.5183000000000000    0.2921000000000000 O
   0.8012000000000000    0.2465000000000000    0.2377000000000000 O
   0.8214000000000000    0.2463000000000000    0.0726000000000000 O
   0.9398500000000000    0.1321000000000000    0.9403000000000000 O
   0.0275500000000000    0.0244000000000000    0.9809000000000000 O
   0.9038000000000000    0.0173000000000000    0.2964000000000000 O
   0.9570000000000000    0.9520000000000000    0.1605000000000000 O
   0.1826000000000000    0.3812000000000000    0.1546000000000000 O
   0.1105500000000000    0.4989000000000000    0.0847000000000000 O
   0.1660000000000000    0.2492000000000000    0.3772000000000000 O
   0.0831000000000000    0.1912000000000000    0.4761000000000000 O
   0.5204500000000000    0.5606000000000000    0.9089000000000000 O
   0.4549000000000000    0.4817000000000000    0.7921000000000000 O
   0.6988000000000000    0.7534999999999999    0.7377000000000000 O
   0.6786000000000000    0.7537000000000000    0.5726000000000000 O
   0.5601500000000000    0.8679000000000000    0.4403000000000000 O
   0.4724500000000000    0.9756000000000000    0.4809000000000000 O
   0.5962000000000000    0.9827000000000000    0.7964000000000000 O
   0.5430000000000000    0.0480000000000000    0.6605000000000000 O
   0.3174000000000000    0.6188000000000000    0.6546000000000000 O
   0.3894500000000000    0.5011000000000000    0.5847000000000000 O
   0.3340000000000000    0.7508000000000000    0.8772000000000000 O
   0.4169000000000000    0.8088000000000000    0.9761000000000000 O
   0.2295500000000000    0.5606000000000000    0.4089000000000000 O
   0.2951000000000000    0.4817000000000000    0.2921000000000000 O
   0.0512000000000000    0.7534999999999999    0.2377000000000000 O
   0.0714000000000000    0.7537000000000000    0.0726000000000000 O
   0.1898500000000000    0.8679000000000000    0.9403000000000000 O
   0.2775500000000000    0.9756000000000000    0.9809000000000000 O
   0.1538000000000000    0.9827000000000000    0.2964000000000000 O
   0.2070000000000000    0.0480000000000000    0.1605000000000000 O
   0.4326000000000000    0.6188000000000000    0.1546000000000000 O
   0.3605500000000000    0.5011000000000000    0.0847000000000000 O
   0.4160000000000000    0.7508000000000000    0.3772000000000000 O
   0.3331000000000000    0.8088000000000000    0.4761000000000000 O
   0.2704500000000000    0.4394000000000000    0.9089000000000000 O
   0.2049000000000000    0.5183000000000000    0.7921000000000000 O
   0.4488000000000000    0.2465000000000000    0.7377000000000000 O
   0.4286000000000000    0.2463000000000000    0.5726000000000000 O
   0.3101500000000000    0.1321000000000000    0.4403000000000000 O
   0.2224500000000000    0.0244000000000000    0.4809000000000000 O
   0.3462000000000000    0.0173000000000000    0.7964000000000000 O
   0.2930000000000000    0.9520000000000000    0.6605000000000000 O
   0.0674000000000000    0.3812000000000000    0.6546000000000000 O
   0.1394500000000000    0.4989000000000000    0.5847000000000000 O
   0.0840000000000000    0.2492000000000000    0.8772000000000000 O
   0.1669000000000000    0.1912000000000000    0.9761000000000000 O
   0.4795500000000000    0.4394000000000000    0.4089000000000000 O
   0.5451000000000000    0.5183000000000000    0.2921000000000000 O
   0.3012000000000000    0.2465000000000000    0.2377000000000000 O
   0.3214000000000000    0.2463000000000000    0.0726000000000000 O
   0.4398500000000000    0.1321000000000000    0.9403000000000000 O
   0.5275500000000000    0.0244000000000000    0.9809000000000000 O
   0.4038000000000000    0.0173000000000000    0.2964000000000000 O
   0.4570000000000000    0.9520000000000000    0.1605000000000000 O
   0.6826000000000000    0.3812000000000000    0.1546000000000000 O
   0.6105500000000000    0.4989000000000000    0.0847000000000000 O
   0.6660000000000000    0.2492000000000000    0.3772000000000000 O
   0.5831000000000000    0.1912000000000000    0.4761000000000000 O
   0.0204500000000001    0.5606000000000000    0.9089000000000000 O
   0.9549000000000000    0.4817000000000000    0.7921000000000000 O
   0.1988000000000001    0.7534999999999999    0.7377000000000000 O
   0.1786000000000001    0.7537000000000000    0.5726000000000000 O
   0.0601499999999999    0.8679000000000000    0.4403000000000000 O
   0.9724500000000000    0.9756000000000000    0.4809000000000000 O
   0.0962000000000001    0.9827000000000000    0.7964000000000000 O
   0.0429999999999999    0.0480000000000000    0.6605000000000000 O
   0.8174000000000000    0.6188000000000000    0.6546000000000000 O
   0.8894500000000000    0.5011000000000000    0.5847000000000000 O
   0.8340000000000000    0.7508000000000000    0.8772000000000000 O
   0.9169000000000000    0.8088000000000000    0.9761000000000000 O
   0.7295500000000000    0.5606000000000000    0.4089000000000000 O
   0.7951000000000000    0.4817000000000000    0.2921000000000000 O
   0.5512000000000000    0.7534999999999999    0.2377000000000000 O
   0.5714000000000000    0.7537000000000000    0.0726000000000000 O
   0.6898500000000000    0.8679000000000000    0.9403000000000000 O
   0.7775500000000000    0.9756000000000000    0.9809000000000000 O
   0.6538000000000000    0.9827000000000000    0.2964000000000000 O
   0.7070000000000000    0.0480000000000000    0.1605000000000000 O
   0.9326000000000000    0.6188000000000000    0.1546000000000000 O
   0.8605500000000000    0.5011000000000000    0.0847000000000000 O
   0.9160000000000000    0.7508000000000000    0.3772000000000000 O
   0.8331000000000000    0.8088000000000000    0.4761000000000000 O
   0.7704500000000000    0.4394000000000000    0.9089000000000000 O
   0.7049000000000000    0.5183000000000000    0.7921000000000000 O
   0.9488000000000000    0.2465000000000000    0.7377000000000000 O
   0.9286000000000000    0.2463000000000000    0.5726000000000000 O
   0.8101500000000000    0.1321000000000000    0.4403000000000000 O
   0.7224500000000000    0.0244000000000000    0.4809000000000000 O
   0.8462000000000000    0.0173000000000000    0.7964000000000000 O
   0.7930000000000000    0.9520000000000000    0.6605000000000000 O
   0.5674000000000000    0.3812000000000000    0.6546000000000000 O
   0.6394500000000000    0.4989000000000000    0.5847000000000000 O
   0.5840000000000000    0.2492000000000000    0.8772000000000000 O
   0.6669000000000000    0.1912000000000000    0.9761000000000000 O
