H144 C48 N24 Cl24 O104
1.0
  18.0239435550907174    0.0000000000000000  -10.2598401046460665
  -0.0000000000000005    8.2365999999999993    0.0000000000000005
   0.0000000000000000    0.0000000000000000   20.7897999999999996
H C N Cl O
144 48 24 24 104
direct
   0.5430000000000000    0.7642000000000000    0.5657000000000000 H
   0.4570000000000000    0.2642000000000000    0.4343000000000000 H
   0.4879000000000000    0.6048000000000000    0.4873000000000000 H
   0.5121000000000000    0.1048000000000000    0.5126999999999999 H
   0.4928000000000000    0.7130000000000000    0.4348000000000000 H
   0.5072000000000000    0.2130000000000001    0.5651999999999999 H
   0.4306000000000000    0.7258000000000000    0.4481000000000000 H
   0.5694000000000000    0.2258000000000000    0.5519000000000001 H
   0.0282000000000000    0.6536999999999999    0.0571000000000000 H
   0.9718000000000000    0.1536999999999999    0.9429000000000000 H
   0.9650000000000000    0.8413000000000000    0.9505000000000000 H
   0.0350000000000000    0.3412999999999999    0.0495000000000000 H
   0.0277000000000000    0.7435000000000000    0.9606000000000000 H
   0.9723000000000001    0.2435000000000000    0.0394000000000000 H
   0.0378000000000000    0.8672000000000000    0.0148000000000000 H
   0.9621999999999999    0.3672000000000000    0.9852000000000000 H
   0.9513000000000000    0.8298000000000000    0.5191000000000000 H
   0.0487000000000000    0.3298000000000001    0.4809000000000000 H
   0.0434000000000001    0.6986000000000000    0.5555000000000000 H
   0.9565999999999999    0.1985999999999999    0.4445000000000000 H
   0.0624000000000000    0.7794000000000000    0.5049000000000000 H
   0.9376000000000000    0.2793999999999999    0.4951000000000000 H
   0.0076000000000001    0.6499000000000000    0.4782000000000000 H
   0.9923999999999999    0.1499000000000001    0.5218000000000000 H
   0.5439000000000001    0.7929000000000000    0.0708000000000000 H
   0.4560999999999999    0.2928999999999999    0.9292000000000000 H
   0.5224000000000000    0.5871000000000000    0.0190000000000000 H
   0.4776000000000000    0.0871000000000000    0.9810000000000000 H
   0.5387999999999999    0.6843000000000000    0.9705000000000000 H
   0.4612000000000001    0.1842999999999999    0.0295000000000000 H
   0.4638000000000000    0.6796000000000000    0.9590000000000000 H
   0.5362000000000000    0.1796000000000000    0.0410000000000000 H
   0.6562000000000000    0.7873000000000000    0.3341000000000000 H
   0.3438000000000000    0.2873000000000001    0.6658999999999999 H
   0.6609000000000000    0.2520000000000000    0.3368000000000000 H
   0.3391000000000000    0.7520000000000000    0.6632000000000000 H
   0.6690000000000000    0.6616000000000000    0.2429000000000000 H
   0.3310000000000000    0.1616000000000000    0.7571000000000000 H
   0.7461000000000000    0.6444000000000000    0.3162000000000000 H
   0.2539000000000000    0.1444000000000001    0.6838000000000000 H
   0.6400000000000000    0.3996000000000000    0.2331000000000000 H
   0.3600000000000000    0.8996000000000000    0.7669000000000000 H
   0.7237000000000000    0.3787000000000000    0.2929000000000000 H
   0.2763000000000000    0.8787000000000000    0.7071000000000001 H
   0.5508000000000000    0.6467000000000001    0.2475000000000000 H
   0.4492000000000000    0.1467000000000001    0.7524999999999999 H
   0.5557000000000000    0.6605000000000000    0.3252000000000000 H
   0.4443000000000000    0.1604999999999999    0.6748000000000001 H
   0.5599000000000000    0.3928000000000000    0.3359000000000000 H
   0.4401000000000000    0.8928000000000000    0.6641000000000000 H
   0.5489000000000001    0.3785000000000000    0.2557000000000000 H
   0.4510999999999999    0.8785000000000001    0.7443000000000000 H
   0.7498000000000000    0.6637000000000000    0.4364000000000000 H
   0.2502000000000000    0.1637000000000000    0.5636000000000000 H
   0.6773000000000000    0.6606000000000000    0.4425000000000000 H
   0.3227000000000000    0.1606000000000001    0.5575000000000000 H
   0.6856000000000000    0.3861000000000000    0.4424000000000000 H
   0.3144000000000000    0.8861000000000000    0.5576000000000000 H
   0.7549000000000000    0.4021000000000000    0.4302000000000000 H
   0.2451000000000000    0.9021000000000000    0.5698000000000000 H
   0.8272000000000000    0.2799000000000000    0.6765000000000000 H
   0.1728000000000000    0.7799000000000000    0.3235000000000000 H
   0.8381999999999999    0.7452000000000000    0.6600000000000000 H
   0.1618000000000001    0.2452000000000001    0.3400000000000000 H
   0.7688000000000000    0.1279999999999999    0.7230000000000000 H
   0.2312000000000000    0.6279999999999999    0.2770000000000000 H
   0.8552000000000000    0.1308000000000000    0.7779000000000000 H
   0.1448000000000000    0.6308000000000000    0.2221000000000000 H
   0.8611000000000000    0.8591000000000000    0.7689000000000000 H
   0.1389000000000000    0.3591000000000000    0.2311000000000000 H
   0.7753000000000000    0.8566000000000000    0.7137000000000000 H
   0.2247000000000000    0.3566000000000000    0.2863000000000000 H
   0.9095000000000000    0.1540999999999999    0.6441000000000000 H
   0.0905000000000000    0.6540999999999999    0.3559000000000000 H
   0.9437000000000000    0.1455000000000000    0.7306000000000000 H
   0.0563000000000000    0.6455000000000000    0.2694000000000000 H
   0.9218000000000000    0.8851000000000000    0.6429000000000000 H
   0.0782000000000000    0.3851000000000000    0.3571000000000000 H
   0.9465000000000000    0.8764000000000000    0.7275000000000000 H
   0.0535000000000000    0.3763999999999998    0.2725000000000000 H
   0.7224000000000000    0.1456000000000000    0.5844000000000000 H
   0.2776000000000000    0.6456000000000000    0.4156000000000000 H
   0.7845000000000000    0.1590000000000000    0.5618000000000000 H
   0.2155000000000000    0.6590000000000000    0.4382000000000000 H
   0.7274000000000000    0.8710000000000000    0.5792000000000000 H
   0.2726000000000000    0.3710000000000000    0.4208000000000000 H
   0.7829000000000000    0.8842000000000000    0.5484000000000000 H
   0.2171000000000000    0.3841999999999999    0.4516000000000000 H
   0.3106000000000000    0.2831999999999999    0.1462000000000000 H
   0.6894000000000000    0.7831999999999999    0.8538000000000000 H
   0.3368000000000000    0.7400000000000000    0.1679000000000000 H
   0.6632000000000000    0.2400000000000000    0.8321000000000001 H
   0.2435000000000000    0.1476000000000000    0.1848000000000000 H
   0.7565000000000000    0.6476000000000000    0.8152000000000000 H
   0.3268000000000000    0.1359999999999999    0.2477000000000000 H
   0.6732000000000000    0.6359999999999999    0.7523000000000000 H
   0.3146000000000000    0.8707000000000000    0.2555000000000000 H
   0.6854000000000000    0.3707000000000000    0.7444999999999999 H
   0.2412000000000000    0.8796000000000000    0.1783000000000000 H
   0.7588000000000000    0.3795999999999999    0.8217000000000000 H
   0.4299000000000000    0.1814000000000000    0.2163000000000000 H
   0.5701000000000001    0.6814000000000000    0.7837000000000001 H
   0.4036000000000000    0.1420999999999999    0.1327000000000000 H
   0.5964000000000000    0.6420999999999999    0.8673000000000000 H
   0.4309000000000000    0.8790000000000000    0.1707000000000000 H
   0.5690999999999999    0.3790000000000000    0.8293000000000000 H
   0.4313000000000000    0.9144000000000000    0.2453000000000000 H
   0.5687000000000000    0.4144000000000001    0.7547000000000000 H
   0.2940000000000000    0.1233000000000000    0.0453000000000000 H
   0.7060000000000000    0.6233000000000000    0.9547000000000000 H
   0.2225000000000000    0.1165000000000000    0.0528000000000000 H
   0.7775000000000000    0.6165000000000000    0.9472000000000000 H
   0.2960000000000000    0.8677000000000000    0.0467000000000000 H
   0.7040000000000000    0.3677000000000001    0.9533000000000000 H
   0.2275000000000000    0.8612000000000000    0.0602000000000000 H
   0.7725000000000000    0.3612000000000000    0.9398000000000000 H
   0.8374000000000000    0.2748999999999999    0.1791000000000000 H
   0.1626000000000000    0.7748999999999999    0.8209000000000000 H
   0.8345000000000000    0.7382000000000000    0.1786000000000000 H
   0.1655000000000000    0.2382000000000000    0.8214000000000000 H
   0.7590000000000000    0.1637000000000000    0.2084000000000000 H
   0.2410000000000000    0.6637000000000000    0.7916000000000000 H
   0.8411000000000000    0.1493000000000000    0.2728000000000000 H
   0.1589000000000000    0.6493000000000000    0.7272000000000001 H
   0.7546000000000000    0.8956000000000000    0.2133000000000000 H
   0.2454000000000000    0.3956000000000000    0.7867000000000000 H
   0.8342000000000001    0.8838000000000000    0.2844000000000000 H
   0.1657999999999999    0.3837999999999999    0.7156000000000000 H
   0.9328000000000000    0.1178999999999999    0.1736000000000000 H
   0.0672000000000000    0.6178999999999999    0.8264000000000000 H
   0.9509000000000000    0.1274999999999999    0.2566000000000000 H
   0.0491000000000000    0.6274999999999999    0.7434000000000001 H
   0.9254000000000000    0.8520000000000000    0.1755000000000000 H
   0.0746000000000000    0.3519999999999999    0.8245000000000000 H
   0.9359000000000000    0.8633000000000000    0.2554000000000000 H
   0.0641000000000000    0.3633000000000000    0.7445999999999999 H
   0.8171000000000000    0.1182000000000001    0.0734000000000000 H
   0.1829000000000000    0.6182000000000001    0.9266000000000000 H
   0.7448000000000000    0.1573000000000000    0.0775000000000000 H
   0.2552000000000000    0.6573000000000000    0.9225000000000000 H
   0.7278000000000000    0.8973000000000000    0.0975000000000000 H
   0.2722000000000000    0.3973000000000000    0.9025000000000000 H
   0.7798000000000000    0.8575000000000000    0.0642000000000000 H
   0.2202000000000000    0.3574999999999999    0.9358000000000000 H
   0.6939000000000000    0.6168000000000000    0.2925000000000000 C
   0.3061000000000000    0.1168000000000000    0.7075000000000000 C
   0.6776000000000000    0.4310000000000000    0.2827000000000000 C
   0.3224000000000000    0.9310000000000000    0.7173000000000000 C
   0.5797000000000000    0.6160000000000000    0.2991000000000000 C
   0.4203000000000000    0.1160000000000001    0.7009000000000001 C
   0.5792000000000000    0.4272000000000000    0.3040000000000000 C
   0.4208000000000000    0.9272000000000000    0.6960000000000000 C
   0.6996000000000000    0.6220000000000000    0.4139000000000000 C
   0.3004000000000000    0.1219999999999999    0.5861000000000001 C
   0.7036000000000000    0.4330000000000000    0.4113000000000000 C
   0.2964000000000000    0.9330000000000001    0.5887000000000000 C
   0.8166000000000000    0.0950000000000000    0.7296000000000000 C
   0.1834000000000000    0.5950000000000000    0.2704000000000000 C
   0.8219000000000000    0.9050000000000000    0.7232000000000000 C
   0.1781000000000000    0.4050000000000000    0.2768000000000000 C
   0.9031000000000000    0.1090000000000000    0.6836000000000000 C
   0.0969000000000000    0.6090000000000000    0.3164000000000000 C
   0.9095000000000000    0.9200000000000000    0.6801000000000000 C
   0.0905000000000000    0.4199999999999999    0.3199000000000000 C
   0.7719000000000000    0.1108000000000000    0.5967000000000000 C
   0.2281000000000000    0.6108000000000000    0.4033000000000000 C
   0.7739000000000000    0.9180000000000000    0.5880000000000000 C
   0.2261000000000000    0.4180000000000001    0.4120000000000000 C
   0.2913000000000000    0.1000000000000001    0.1981000000000000 C
   0.7087000000000000    0.6000000000000001    0.8019000000000001 C
   0.2927000000000000    0.9130000000000000    0.2055000000000000 C
   0.7073000000000000    0.4130000000000000    0.7945000000000000 C
   0.3947000000000000    0.1200000000000001    0.1734000000000000 C
   0.6052999999999999    0.6200000000000001    0.8266000000000000 C
   0.4040000000000000    0.9311000000000000    0.1922000000000000 C
   0.5960000000000000    0.4311000000000000    0.8078000000000000 C
   0.2740000000000000    0.0830000000000000    0.0757000000000000 C
   0.7260000000000000    0.5830000000000000    0.9243000000000000 C
   0.2762000000000000    0.9080000000000000    0.0773000000000000 C
   0.7238000000000000    0.4079999999999999    0.9227000000000000 C
   0.8062000000000000    0.1110000000000000    0.2234000000000000 C
   0.1938000000000000    0.6110000000000000    0.7766000000000000 C
   0.8065000000000000    0.9250000000000000    0.2342000000000000 C
   0.1935000000000000    0.4250000000000000    0.7658000000000000 C
   0.9156000000000000    0.0880000000000001    0.2077000000000000 C
   0.0844000000000000    0.5880000000000001    0.7923000000000000 C
   0.9063000000000000    0.9020000000000000    0.2050000000000000 C
   0.0937000000000000    0.4020000000000001    0.7950000000000000 C
   0.7917000000000000    0.1000000000000001    0.1014000000000000 C
   0.2083000000000000    0.6000000000000001    0.8986000000000000 C
   0.7765000000000000    0.9160000000000000    0.1029000000000000 C
   0.2235000000000000    0.4159999999999999    0.8971000000000000 C
   0.4789000000000000    0.7049000000000000    0.4688000000000000 N
   0.5211000000000000    0.2048999999999999    0.5312000000000000 N
   0.0067000000000000    0.7931000000000000    0.9837000000000000 N
   0.9933000000000000    0.2930999999999999    0.0163000000000000 N
   0.0259000000000000    0.7335000000000000    0.5093000000000000 N
   0.9741000000000000    0.2335000000000000    0.4907000000000000 N
   0.5120000000000000    0.6790000000000000    0.9930000000000000 N
   0.4880000000000000    0.1790000000000000    0.0070000000000000 N
   0.6571000000000000    0.6680000000000000    0.3348000000000000 N
   0.3429000000000000    0.1680000000000001    0.6652000000000000 N
   0.6590000000000000    0.3709000000000000    0.3361000000000000 N
   0.3410000000000000    0.8709000000000000    0.6638999999999999 N
   0.8273000000000000    0.1612000000000000    0.6732000000000000 N
   0.1727000000000000    0.6612000000000000    0.3268000000000000 N
   0.8360000000000000    0.8639000000000000    0.6622000000000000 N
   0.1640000000000000    0.3639000000000001    0.3378000000000000 N
   0.3159000000000000    0.1649000000000000    0.1511000000000000 N
   0.6840999999999999    0.6649000000000000    0.8489000000000000 N
   0.3325000000000000    0.8583000000000000    0.1623000000000000 N
   0.6675000000000000    0.3582999999999998    0.8377000000000000 N
   0.8342000000000001    0.1561999999999999    0.1790000000000000 N
   0.1657999999999999    0.6561999999999999    0.8210000000000000 N
   0.8353000000000000    0.8571000000000000    0.1776000000000000 N
   0.1647000000000000    0.3571000000000000    0.8224000000000000 N
   0.9192000000000000    0.4935000000000000    0.1142000000000000 Cl
   0.0808000000000000    0.9935000000000000    0.8858000000000000 Cl
   0.6788000000000000    0.5182000000000000    0.0899000000000000 Cl
   0.3212000000000000    0.0182000000000000    0.9101000000000000 Cl
   0.9048600000000000    0.5214000000000000    0.3389200000000000 Cl
   0.0951400000000000    0.0213999999999999    0.6610800000000000 Cl
   0.4151000000000000    0.5225000000000000    0.0858000000000000 Cl
   0.5849000000000000    0.0225000000000000    0.9142000000000000 Cl
   0.1630800000000000    0.4934000000000000    0.0647400000000000 Cl
   0.8369200000000000    0.9934000000000001    0.9352600000000000 Cl
   0.3868200000000000    0.5129000000000000    0.3027400000000000 Cl
   0.6131800000000001    0.0129000000000001    0.6972600000000000 Cl
   0.9141600000000000    0.5289000000000000    0.5891700000000000 Cl
   0.0858400000000000    0.0289000000000001    0.4108300000000000 Cl
   0.6738200000000000    0.5177000000000000    0.5866500000000000 Cl
   0.3261800000000000    0.0177000000000000    0.4133500000000000 Cl
   0.9094000000000000    0.4950000000000000    0.8253000000000000 Cl
   0.0906000000000000    0.9950000000000000    0.1747000000000000 Cl
   0.5650500000000001    0.0183000000000000    0.4039900000000000 Cl
   0.4349499999999999    0.5183000000000000    0.5960099999999999 Cl
   0.8056000000000000    0.0291999999999999    0.4214000000000000 Cl
   0.1944000000000000    0.5291999999999999    0.5786000000000000 Cl
   0.5937000000000000    0.0268999999999999    0.1815000000000000 Cl
   0.4063000000000000    0.5268999999999999    0.8185000000000000 Cl
   0.9954000000000000    0.4891000000000000    0.1339000000000000 O
   0.0046000000000000    0.9891000000000000    0.8661000000000000 O
   0.8881000000000000    0.6498000000000000    0.0808000000000000 O
   0.1119000000000000    0.1497999999999999    0.9192000000000000 O
   0.8815000000000000    0.3692000000000000    0.0614000000000000 O
   0.1185000000000000    0.8692000000000000    0.9386000000000000 O
   0.9162000000000000    0.4694000000000000    0.1815000000000000 O
   0.0838000000000000    0.9694000000000000    0.8185000000000000 O
   0.7502000000000000    0.5170000000000000    0.0970000000000000 O
   0.2498000000000000    0.0169999999999999    0.9030000000000000 O
   0.6202000000000000    0.5210000000000000    0.0128000000000000 O
   0.3798000000000000    0.0209999999999999    0.9872000000000000 O
   0.6673000000000000    0.3770000000000000    0.1277000000000000 O
   0.3327000000000000    0.8770000000000000    0.8723000000000000 O
   0.6704000000000000    0.6610000000000000    0.1210000000000000 O
   0.3296000000000000    0.1610000000000000    0.8790000000000000 O
   0.9322000000000000    0.3670000000000000    0.3320000000000000 O
   0.0678000000000000    0.8670000000000000    0.6679999999999999 O
   0.9583000000000000    0.6476000000000000    0.3536000000000000 O
   0.0417000000000000    0.1476000000000000    0.6464000000000000 O
   0.8925000000000000    0.5218000000000000    0.4015000000000000 O
   0.1075000000000000    0.0218000000000000    0.5985000000000000 O
   0.8377000000000000    0.5607000000000000    0.2732000000000000 O
   0.1623000000000000    0.0607000000000000    0.7268000000000000 O
   0.4929000000000000    0.5060000000000000    0.1085000000000000 O
   0.5071000000000000    0.0060000000000000    0.8915000000000000 O
   0.3806000000000000    0.6490000000000000    0.0356000000000000 O
   0.6194000000000000    0.1490000000000000    0.9644000000000000 O
   0.3804000000000000    0.3690000000000000    0.0527000000000000 O
   0.6195999999999999    0.8690000000000000    0.9473000000000000 O
   0.4092000000000000    0.5480000000000000    0.1508000000000000 O
   0.5908000000000000    0.0480000000000000    0.8492000000000000 O
   0.2308000000000000    0.4627000000000000    0.0646000000000000 O
   0.7692000000000000    0.9627000000000000    0.9354000000000000 O
   0.0998000000000000    0.4947000000000000    0.9887000000000000 O
   0.9002000000000000    0.9946999999999999    0.0113000000000000 O
   0.1519000000000000    0.3781000000000000    0.1082000000000000 O
   0.8481000000000000    0.8781000000000000    0.8918000000000000 O
   0.1625000000000000    0.6524000000000000    0.0905000000000000 O
   0.8375000000000000    0.1524000000000001    0.9095000000000000 O
   0.3195000000000000    0.4907000000000000    0.2299000000000000 O
   0.6805000000000000    0.9907000000000000    0.7701000000000000 O
   0.4332000000000000    0.3730000000000000    0.3121000000000000 O
   0.5668000000000000    0.8730000000000000    0.6879000000000000 O
   0.4269000000000000    0.6584000000000000    0.3109000000000000 O
   0.5730999999999999    0.1583999999999999    0.6891000000000000 O
   0.3643000000000000    0.5164000000000000    0.3562000000000000 O
   0.6356999999999999    0.0164000000000000    0.6437999999999999 O
   0.9889000000000000    0.5230000000000000    0.6032000000000000 O
   0.0111000000000000    0.0230000000000001    0.3968000000000000 O
   0.8771000000000000    0.6665000000000000    0.5474000000000000 O
   0.1229000000000000    0.1665000000000001    0.4526000000000000 O
   0.8779000000000000    0.3817000000000000    0.5485000000000000 O
   0.1221000000000000    0.8816999999999999    0.4515000000000000 O
   0.9137999999999999    0.5200000000000000    0.6587000000000000 O
   0.0862000000000001    0.0200000000000000    0.3413000000000000 O
   0.7426000000000000    0.5180000000000000    0.5856000000000000 O
   0.2574000000000000    0.0180000000000000    0.4144000000000000 O
   0.6128000000000000    0.5196000000000000    0.5107000000000000 O
   0.3872000000000000    0.0196000000000001    0.4893000000000000 O
   0.6726000000000000    0.3703000000000000    0.6233000000000000 O
   0.3274000000000000    0.8703000000000001    0.3767000000000000 O
   0.6654000000000000    0.6524000000000000    0.6239000000000000 O
   0.3346000000000000    0.1524000000000001    0.3761000000000000 O
   0.9461000000000001    0.6468000000000000    0.8250999999999999 O
   0.0538999999999999    0.1468000000000000    0.1749000000000001 O
   0.9550999999999999    0.3581000000000000    0.8322000000000001 O
   0.0449000000000001    0.8581000000000000    0.1677999999999999 O
   0.8411000000000000    0.4849000000000000    0.7559000000000000 O
   0.1589000000000000    0.9849000000000000    0.2441000000000000 O
   0.8941000000000000    0.4924000000000000    0.8857000000000000 O
   0.1059000000000000    0.9923999999999999    0.1143000000000000 O
   0.4887000000000000    0.0217000000000000    0.3900000000000000 O
   0.5113000000000000    0.5217000000000001    0.6100000000000000 O
   0.6081000000000000    0.8932000000000000    0.4557000000000000 O
   0.3919000000000000    0.3932000000000000    0.5443000000000000 O
   0.5944000000000000    0.1712000000000000    0.4312000000000000 O
   0.4056000000000000    0.6712000000000000    0.5688000000000000 O
   0.5669000000000000    0.0300000000000000    0.3388000000000000 O
   0.4331000000000000    0.5300000000000000    0.6612000000000000 O
   0.7349000000000000    0.0549999999999999    0.4181000000000000 O
   0.2651000000000000    0.5549999999999999    0.5819000000000000 O
   0.8617000000000000    0.0337000000000001    0.4980000000000000 O
   0.1383000000000000    0.5337000000000001    0.5020000000000000 O
   0.8050000000000000    0.8851000000000000    0.3843000000000000 O
   0.1950000000000000    0.3851000000000000    0.6157000000000000 O
   0.8226000000000000    0.1632000000000000    0.3890000000000000 O
   0.1774000000000000    0.6632000000000000    0.6110000000000000 O
   0.5616000000000000    0.8840000000000000    0.1827000000000000 O
   0.4384000000000000    0.3839999999999999    0.8173000000000000 O
   0.6571000000000000    0.0209999999999999    0.2546000000000000 O
   0.3429000000000000    0.5209999999999999    0.7454000000000001 O
   0.6168000000000000    0.0289999999999999    0.1275000000000000 O
   0.3832000000000000    0.5289999999999999    0.8725000000000001 O
   0.5417999999999999    0.1539999999999999    0.1650000000000000 O
   0.4582000000000001    0.6539999999999999    0.8350000000000000 O
   0.5185999999999999    0.8129000000000000    0.5266000000000000 O
   0.4814000000000001    0.3129000000000000    0.4734000000000000 O
   0.9897000000000000    0.6808999999999999    0.0201000000000000 O
   0.0103000000000000    0.1808999999999998    0.9799000000000000 O
   0.9696000000000000    0.8450000000000000    0.4925000000000000 O
   0.0304000000000000    0.3450000000000000    0.5075000000000001 O
   0.5202000000000000    0.8240000000000000    0.0277000000000000 O
   0.4798000000000000    0.3239999999999998    0.9723000000000001 O
