K8 H112 C48 N16 Cl24 O96
1.0
  14.2910000000000004    0.0000000000000000    0.0000000000000009
  -0.0000000000000009   14.2910000000000004    0.0000000000000009
   0.0000000000000000    0.0000000000000000   14.2910000000000004
K H C N Cl O
8 112 48 16 24 96
direct
   0.5000000000000000    0.5000000000000000    0.0000000000000000 K
   0.0000000000000000    0.5000000000000000    0.5000000000000000 K
   0.5000000000000000    0.0000000000000000    0.5000000000000000 K
   0.0000000000000000    0.0000000000000000    0.0000000000000000 K
   0.5000000000000000    0.0000000000000000    0.0000000000000000 K
   0.0000000000000000    0.0000000000000000    0.5000000000000000 K
   0.5000000000000000    0.5000000000000000    0.5000000000000000 K
   0.0000000000000000    0.5000000000000000    0.0000000000000000 K
   0.6256999999999999    0.3215000000000000    0.3233000000000000 H
   0.8743000000000001    0.6785000000000000    0.8232999999999999 H
   0.3743000000000000    0.8215000000000000    0.1767000000000000 H
   0.1257000000000000    0.1785000000000000    0.6767000000000001 H
   0.3233000000000000    0.6256999999999999    0.3215000000000000 H
   0.8232999999999999    0.8743000000000001    0.6785000000000000 H
   0.1767000000000000    0.3743000000000000    0.8215000000000000 H
   0.6767000000000001    0.1257000000000000    0.1785000000000000 H
   0.3215000000000000    0.3233000000000000    0.6256999999999999 H
   0.6785000000000000    0.8232999999999999    0.8743000000000001 H
   0.8215000000000000    0.1767000000000000    0.3743000000000000 H
   0.1785000000000000    0.6767000000000001    0.1257000000000000 H
   0.3743000000000000    0.6785000000000000    0.6767000000000001 H
   0.1257000000000000    0.3215000000000000    0.1767000000000000 H
   0.6256999999999999    0.1785000000000000    0.8232999999999999 H
   0.8743000000000001    0.8215000000000000    0.3233000000000000 H
   0.6767000000000001    0.3743000000000000    0.6785000000000000 H
   0.1767000000000000    0.1257000000000000    0.3215000000000000 H
   0.8232999999999999    0.6256999999999999    0.1785000000000000 H
   0.3233000000000000    0.8743000000000001    0.8215000000000000 H
   0.6785000000000000    0.6767000000000001    0.3743000000000000 H
   0.3215000000000000    0.1767000000000000    0.1257000000000000 H
   0.1785000000000000    0.8232999999999999    0.6256999999999999 H
   0.8215000000000000    0.3233000000000000    0.8743000000000001 H
   0.6032999999999999    0.2779000000000000    0.2234000000000000 H
   0.8967000000000001    0.7221000000000000    0.7234000000000000 H
   0.3967000000000000    0.7779000000000000    0.2766000000000000 H
   0.1033000000000000    0.2221000000000000    0.7766000000000000 H
   0.2234000000000000    0.6032999999999999    0.2779000000000000 H
   0.7234000000000000    0.8967000000000001    0.7221000000000000 H
   0.2766000000000000    0.3967000000000000    0.7779000000000000 H
   0.7766000000000000    0.1033000000000000    0.2221000000000000 H
   0.2779000000000000    0.2234000000000000    0.6032999999999999 H
   0.7221000000000000    0.7234000000000000    0.8967000000000001 H
   0.7779000000000000    0.2766000000000000    0.3967000000000000 H
   0.2221000000000000    0.7766000000000000    0.1033000000000000 H
   0.3967000000000000    0.7221000000000000    0.7766000000000000 H
   0.1033000000000000    0.2779000000000000    0.2766000000000000 H
   0.6032999999999999    0.2221000000000000    0.7234000000000000 H
   0.8967000000000001    0.7779000000000000    0.2234000000000000 H
   0.7766000000000000    0.3967000000000000    0.7221000000000000 H
   0.2766000000000000    0.1033000000000000    0.2779000000000000 H
   0.7234000000000000    0.6032999999999999    0.2221000000000000 H
   0.2234000000000000    0.8967000000000001    0.7779000000000000 H
   0.7221000000000000    0.7766000000000000    0.3967000000000000 H
   0.2779000000000000    0.2766000000000000    0.1033000000000000 H
   0.2221000000000000    0.7234000000000000    0.6032999999999999 H
   0.7779000000000000    0.2234000000000000    0.8967000000000001 H
   0.6936000000000000    0.3912000000000000    0.1680000000000000 H
   0.8064000000000000    0.6088000000000000    0.6680000000000000 H
   0.3064000000000000    0.8912000000000000    0.3320000000000000 H
   0.1936000000000000    0.1088000000000000    0.8320000000000000 H
   0.1680000000000000    0.6936000000000000    0.3912000000000000 H
   0.6680000000000000    0.8064000000000000    0.6088000000000000 H
   0.3320000000000000    0.3064000000000000    0.8912000000000000 H
   0.8320000000000000    0.1936000000000000    0.1088000000000000 H
   0.3912000000000000    0.1680000000000000    0.6936000000000000 H
   0.6088000000000000    0.6680000000000000    0.8064000000000000 H
   0.8912000000000000    0.3320000000000000    0.3064000000000000 H
   0.1088000000000000    0.8320000000000000    0.1936000000000000 H
   0.3064000000000000    0.6088000000000000    0.8320000000000000 H
   0.1936000000000000    0.3912000000000000    0.3320000000000000 H
   0.6936000000000000    0.1088000000000000    0.6680000000000000 H
   0.8064000000000000    0.8912000000000000    0.1680000000000000 H
   0.8320000000000000    0.3064000000000000    0.6088000000000000 H
   0.3320000000000000    0.1936000000000000    0.3912000000000000 H
   0.6680000000000000    0.6936000000000000    0.1088000000000000 H
   0.1680000000000000    0.8064000000000000    0.8912000000000000 H
   0.6088000000000000    0.8320000000000000    0.3064000000000000 H
   0.3912000000000000    0.3320000000000000    0.1936000000000000 H
   0.1088000000000000    0.6680000000000000    0.6936000000000000 H
   0.8912000000000000    0.1680000000000000    0.8064000000000000 H
   0.7401000000000000    0.4099000000000000    0.2672000000000000 H
   0.7599000000000000    0.5901000000000001    0.7672000000000000 H
   0.2599000000000000    0.9098999999999999    0.2328000000000000 H
   0.2401000000000000    0.0901000000000000    0.7328000000000000 H
   0.2672000000000000    0.7401000000000000    0.4099000000000000 H
   0.7672000000000000    0.7599000000000000    0.5901000000000001 H
   0.2328000000000000    0.2599000000000000    0.9098999999999999 H
   0.7328000000000000    0.2401000000000000    0.0901000000000000 H
   0.4099000000000000    0.2672000000000000    0.7401000000000000 H
   0.5901000000000001    0.7672000000000000    0.7599000000000000 H
   0.9098999999999999    0.2328000000000000    0.2599000000000000 H
   0.0901000000000000    0.7328000000000000    0.2401000000000000 H
   0.2599000000000000    0.5901000000000001    0.7328000000000000 H
   0.2401000000000000    0.4099000000000000    0.2328000000000000 H
   0.7401000000000000    0.0901000000000000    0.7672000000000000 H
   0.7599000000000000    0.9098999999999999    0.2672000000000000 H
   0.7328000000000000    0.2599000000000000    0.5901000000000001 H
   0.2328000000000000    0.2401000000000000    0.4099000000000000 H
   0.7672000000000000    0.7401000000000000    0.0901000000000000 H
   0.2672000000000000    0.7599000000000000    0.9098999999999999 H
   0.5901000000000001    0.7328000000000000    0.2599000000000000 H
   0.4099000000000000    0.2328000000000000    0.2401000000000000 H
   0.0901000000000000    0.7672000000000000    0.7401000000000000 H
   0.9098999999999999    0.2672000000000000    0.7599000000000000 H
   0.6664000000000000    0.1664000000000000    0.3336000000000000 H
   0.8336000000000000    0.8336000000000000    0.8336000000000000 H
   0.3336000000000000    0.6664000000000000    0.1664000000000000 H
   0.1664000000000000    0.3336000000000000    0.6664000000000000 H
   0.3336000000000000    0.8336000000000000    0.6664000000000000 H
   0.1664000000000000    0.1664000000000000    0.1664000000000000 H
   0.6664000000000000    0.3336000000000000    0.8336000000000000 H
   0.8336000000000000    0.6664000000000000    0.3336000000000000 H
   0.8472999999999999    0.3473000000000000    0.1527000000000000 H
   0.6527000000000001    0.6527000000000001    0.6527000000000001 H
   0.1527000000000000    0.8472999999999999    0.3473000000000000 H
   0.3473000000000000    0.1527000000000000    0.8472999999999999 H
   0.1527000000000000    0.6527000000000001    0.8472999999999999 H
   0.3473000000000000    0.3473000000000000    0.3473000000000000 H
   0.8472999999999999    0.1527000000000000    0.6527000000000001 H
   0.6527000000000001    0.8472999999999999    0.1527000000000000 H
   0.6536200000000000    0.2931800000000000    0.2674800000000000 C
   0.8463800000000000    0.7068200000000000    0.7674799999999999 C
   0.3463800000000000    0.7931800000000000    0.2325200000000000 C
   0.1536200000000000    0.2068200000000000    0.7325200000000001 C
   0.2674800000000000    0.6536200000000000    0.2931800000000000 C
   0.7674799999999999    0.8463800000000000    0.7068200000000000 C
   0.2325200000000000    0.3463800000000000    0.7931800000000000 C
   0.7325200000000001    0.1536200000000000    0.2068200000000000 C
   0.2931800000000000    0.2674800000000000    0.6536200000000000 C
   0.7068200000000000    0.7674799999999999    0.8463800000000000 C
   0.7931800000000000    0.2325200000000000    0.3463800000000000 C
   0.2068200000000000    0.7325200000000001    0.1536200000000000 C
   0.3463800000000000    0.7068200000000000    0.7325200000000001 C
   0.1536200000000000    0.2931800000000000    0.2325200000000000 C
   0.6536200000000000    0.2068200000000000    0.7674799999999999 C
   0.8463800000000000    0.7931800000000000    0.2674800000000000 C
   0.7325200000000001    0.3463800000000000    0.7068200000000000 C
   0.2325200000000000    0.1536200000000000    0.2931800000000000 C
   0.7674799999999999    0.6536200000000000    0.2068200000000000 C
   0.2674800000000000    0.8463800000000000    0.7931800000000000 C
   0.7068200000000000    0.7325200000000001    0.3463800000000000 C
   0.2931800000000000    0.2325200000000000    0.1536200000000000 C
   0.2068200000000000    0.7674799999999999    0.6536200000000000 C
   0.7931800000000000    0.2674800000000000    0.8463800000000000 C
   0.7224800000000000    0.3611200000000000    0.2223700000000000 C
   0.7775200000000000    0.6388800000000000    0.7223700000000000 C
   0.2775200000000000    0.8611200000000000    0.2776300000000000 C
   0.2224800000000000    0.1388800000000000    0.7776300000000000 C
   0.2223700000000000    0.7224800000000000    0.3611200000000000 C
   0.7223700000000000    0.7775200000000000    0.6388800000000000 C
   0.2776300000000000    0.2775200000000000    0.8611200000000000 C
   0.7776300000000000    0.2224800000000000    0.1388800000000000 C
   0.3611200000000000    0.2223700000000000    0.7224800000000000 C
   0.6388800000000000    0.7223700000000000    0.7775200000000000 C
   0.8611200000000000    0.2776300000000000    0.2775200000000000 C
   0.1388800000000000    0.7776300000000000    0.2224800000000000 C
   0.2775200000000000    0.6388800000000000    0.7776300000000000 C
   0.2224800000000000    0.3611200000000000    0.2776300000000000 C
   0.7224800000000000    0.1388800000000000    0.7223700000000000 C
   0.7775200000000000    0.8611200000000000    0.2223700000000000 C
   0.7776300000000000    0.2775200000000000    0.6388800000000000 C
   0.2776300000000000    0.2224800000000000    0.3611200000000000 C
   0.7223700000000000    0.7224800000000000    0.1388800000000000 C
   0.2223700000000000    0.7775200000000000    0.8611200000000000 C
   0.6388800000000000    0.7776300000000000    0.2775200000000000 C
   0.3611200000000000    0.2776300000000000    0.2224800000000000 C
   0.1388800000000000    0.7223700000000000    0.7224800000000000 C
   0.8611200000000000    0.2223700000000000    0.7775200000000000 C
   0.7063600000000000    0.2063600000000000    0.2936400000000000 N
   0.7936400000000000    0.7936400000000000    0.7936400000000000 N
   0.2936400000000000    0.7063600000000000    0.2063600000000000 N
   0.2063600000000000    0.2936400000000000    0.7063600000000000 N
   0.2936400000000000    0.7936400000000000    0.7063600000000000 N
   0.2063600000000000    0.2063600000000000    0.2063600000000000 N
   0.7063600000000000    0.2936400000000000    0.7936400000000000 N
   0.7936400000000000    0.7063600000000000    0.2936400000000000 N
   0.8072600000000000    0.3072600000000000    0.1927400000000000 N
   0.6927400000000000    0.6927400000000000    0.6927400000000000 N
   0.1927400000000000    0.8072600000000000    0.3072600000000000 N
   0.3072600000000000    0.1927400000000000    0.8072600000000000 N
   0.1927400000000000    0.6927400000000000    0.8072600000000000 N
   0.3072600000000000    0.3072600000000000    0.3072600000000000 N
   0.8072600000000000    0.1927400000000000    0.6927400000000000 N
   0.6927400000000000    0.8072600000000000    0.1927400000000000 N
   0.5136200000000000    0.2486300000000000    0.0006000000000000 Cl
   0.9863800000000000    0.7513700000000000    0.5006000000000000 Cl
   0.4863800000000000    0.7486300000000000    0.4994000000000000 Cl
   0.0136200000000000    0.2513700000000000    0.9994000000000000 Cl
   0.0006000000000000    0.5136200000000000    0.2486300000000000 Cl
   0.5006000000000000    0.9863800000000000    0.7513700000000000 Cl
   0.4994000000000000    0.4863800000000000    0.7486300000000000 Cl
   0.9994000000000000    0.0136200000000000    0.2513700000000000 Cl
   0.2486300000000000    0.0006000000000000    0.5136200000000000 Cl
   0.7513700000000000    0.5006000000000000    0.9863800000000000 Cl
   0.7486300000000000    0.4994000000000000    0.4863800000000000 Cl
   0.2513700000000000    0.9994000000000000    0.0136200000000000 Cl
   0.4863800000000000    0.7513700000000000    0.9994000000000000 Cl
   0.0136200000000000    0.2486300000000000    0.4994000000000000 Cl
   0.5136200000000000    0.2513700000000000    0.5006000000000000 Cl
   0.9863800000000000    0.7486300000000000    0.0006000000000000 Cl
   0.9994000000000000    0.4863800000000000    0.7513700000000000 Cl
   0.4994000000000000    0.0136200000000000    0.2486300000000000 Cl
   0.5006000000000000    0.5136200000000000    0.2513700000000000 Cl
   0.0006000000000000    0.9863800000000000    0.7486300000000000 Cl
   0.7513700000000000    0.9994000000000000    0.4863800000000000 Cl
   0.2486300000000000    0.4994000000000000    0.0136200000000000 Cl
   0.2513700000000000    0.5006000000000000    0.5136200000000000 Cl
   0.7486300000000000    0.0006000000000000    0.9863800000000000 Cl
   0.5993500000000000    0.2971900000000000    0.9790800000000000 O
   0.9006500000000000    0.7028099999999999    0.4790800000000000 O
   0.4006500000000000    0.7971900000000001    0.5209200000000000 O
   0.0993500000000000    0.2028100000000000    0.0209200000000000 O
   0.9790800000000000    0.5993500000000000    0.2971900000000000 O
   0.4790800000000000    0.9006500000000000    0.7028099999999999 O
   0.5209200000000000    0.4006500000000000    0.7971900000000001 O
   0.0209200000000000    0.0993500000000000    0.2028100000000000 O
   0.2971900000000000    0.9790800000000000    0.5993500000000000 O
   0.7028099999999999    0.4790800000000000    0.9006500000000000 O
   0.7971900000000001    0.5209200000000000    0.4006500000000000 O
   0.2028100000000000    0.0209200000000000    0.0993500000000000 O
   0.4006500000000000    0.7028099999999999    0.0209200000000000 O
   0.0993500000000000    0.2971900000000000    0.5209200000000000 O
   0.5993500000000000    0.2028100000000000    0.4790800000000000 O
   0.9006500000000000    0.7971900000000001    0.9790800000000000 O
   0.0209200000000000    0.4006500000000000    0.7028099999999999 O
   0.5209200000000000    0.0993500000000000    0.2971900000000000 O
   0.4790800000000000    0.5993500000000000    0.2028100000000000 O
   0.9790800000000000    0.9006500000000000    0.7971900000000001 O
   0.7028099999999999    0.0209200000000000    0.4006500000000000 O
   0.2971900000000000    0.5209200000000000    0.0993500000000000 O
   0.2028100000000000    0.4790800000000000    0.5993500000000000 O
   0.7971900000000001    0.9790800000000000    0.9006500000000000 O
   0.4407400000000000    0.3158500000000000    0.0175500000000000 O
   0.0592600000000001    0.6841500000000000    0.5175500000000000 O
   0.5592600000000000    0.8158500000000000    0.4824500000000000 O
   0.9407400000000000    0.1841500000000000    0.9824500000000000 O
   0.0175500000000000    0.4407400000000000    0.3158500000000000 O
   0.5175500000000000    0.0592600000000001    0.6841500000000000 O
   0.4824500000000000    0.5592600000000000    0.8158500000000000 O
   0.9824500000000000    0.9407400000000000    0.1841500000000000 O
   0.3158500000000000    0.0175500000000000    0.4407400000000000 O
   0.6841500000000000    0.5175500000000000    0.0592600000000001 O
   0.8158500000000000    0.4824500000000000    0.5592600000000000 O
   0.1841500000000000    0.9824500000000000    0.9407400000000000 O
   0.5592600000000000    0.6841500000000000    0.9824500000000000 O
   0.9407400000000000    0.3158500000000000    0.4824500000000000 O
   0.4407400000000000    0.1841500000000000    0.5175500000000000 O
   0.0592600000000001    0.8158500000000000    0.0175500000000000 O
   0.9824500000000000    0.5592600000000000    0.6841500000000000 O
   0.4824500000000000    0.9407400000000000    0.3158500000000000 O
   0.5175500000000000    0.4407400000000000    0.1841500000000000 O
   0.0175500000000000    0.0592600000000001    0.8158500000000000 O
   0.6841500000000000    0.9824500000000000    0.5592600000000000 O
   0.3158500000000000    0.4824500000000000    0.9407400000000000 O
   0.1841500000000000    0.5175500000000000    0.4407400000000000 O
   0.8158500000000000    0.0175500000000000    0.0592600000000001 O
   0.5263500000000000    0.1912900000000000    0.0822000000000000 O
   0.9736500000000000    0.8087100000000000    0.5822000000000001 O
   0.4736500000000000    0.6912900000000000    0.4178000000000000 O
   0.0263500000000000    0.3087100000000000    0.9177999999999999 O
   0.0822000000000000    0.5263500000000000    0.1912900000000000 O
   0.5822000000000001    0.9736500000000000    0.8087100000000000 O
   0.4178000000000000    0.4736500000000000    0.6912900000000000 O
   0.9177999999999999    0.0263500000000000    0.3087100000000000 O
   0.1912900000000000    0.0822000000000000    0.5263500000000000 O
   0.8087100000000000    0.5822000000000001    0.9736500000000000 O
   0.6912900000000000    0.4178000000000000    0.4736500000000000 O
   0.3087100000000000    0.9177999999999999    0.0263500000000000 O
   0.4736500000000000    0.8087100000000000    0.9177999999999999 O
   0.0263500000000000    0.1912900000000000    0.4178000000000000 O
   0.5263500000000000    0.3087100000000000    0.5822000000000001 O
   0.9736500000000000    0.6912900000000000    0.0822000000000000 O
   0.9177999999999999    0.4736500000000000    0.8087100000000000 O
   0.4178000000000000    0.0263500000000000    0.1912900000000000 O
   0.5822000000000001    0.5263500000000000    0.3087100000000000 O
   0.0822000000000000    0.9736500000000000    0.6912900000000000 O
   0.8087100000000000    0.9177999999999999    0.4736500000000000 O
   0.1912900000000000    0.4178000000000000    0.0263500000000000 O
   0.3087100000000000    0.5822000000000001    0.5263500000000000 O
   0.6912900000000000    0.0822000000000000    0.9736500000000000 O
   0.4875400000000000    0.1897300000000000    0.9226100000000000 O
   0.0124599999999999    0.8102700000000000    0.4226100000000000 O
   0.5124600000000000    0.6897300000000000    0.5773900000000000 O
   0.9875400000000000    0.3102700000000000    0.0773900000000000 O
   0.9226100000000000    0.4875400000000000    0.1897300000000000 O
   0.4226100000000000    0.0124599999999999    0.8102700000000000 O
   0.5773900000000000    0.5124600000000000    0.6897300000000000 O
   0.0773900000000000    0.9875400000000000    0.3102700000000000 O
   0.1897300000000000    0.9226100000000000    0.4875400000000000 O
   0.8102700000000000    0.4226100000000000    0.0124599999999999 O
   0.6897300000000000    0.5773900000000000    0.5124600000000000 O
   0.3102700000000000    0.0773900000000000    0.9875400000000000 O
   0.5124600000000000    0.8102700000000000    0.0773900000000000 O
   0.9875400000000000    0.1897300000000000    0.5773900000000000 O
   0.4875400000000000    0.3102700000000000    0.4226100000000000 O
   0.0124599999999999    0.6897300000000000    0.9226100000000000 O
   0.0773900000000000    0.5124600000000000    0.8102700000000000 O
   0.5773900000000000    0.9875400000000000    0.1897300000000000 O
   0.4226100000000000    0.4875400000000000    0.3102700000000000 O
   0.9226100000000000    0.0124599999999999    0.6897300000000000 O
   0.8102700000000000    0.0773900000000000    0.5124600000000000 O
   0.1897300000000000    0.5773900000000000    0.9875400000000000 O
   0.3102700000000000    0.4226100000000000    0.4875400000000000 O
   0.6897300000000000    0.9226100000000000    0.0124599999999999 O
