Cu32 N96
1.0
  14.4680000000000000    0.0000000000000000    0.0000000000000009
  -0.0000000000000008   13.2500000000000000    0.0000000000000008
   0.0000000000000000    0.0000000000000000   11.0210000000000008
Cu N
32 96
direct
   0.4219300000000000    0.0680600000000000    0.3152300000000000 Cu
   0.3280700000000000    0.4319400000000000    0.8152300000000000 Cu
   0.0780700000000000    0.3180600000000000    0.1847700000000001 Cu
   0.1719300000000000    0.1819400000000000    0.6847700000000000 Cu
   0.0780700000000000    0.4319400000000000    0.6847700000000000 Cu
   0.1719300000000000    0.0680600000000000    0.1847700000000001 Cu
   0.4219300000000000    0.1819400000000000    0.8152300000000000 Cu
   0.3280700000000000    0.3180600000000000    0.3152300000000000 Cu
   0.9219300000000000    0.0680600000000000    0.3152300000000000 Cu
   0.8280700000000000    0.4319400000000000    0.8152300000000000 Cu
   0.5780700000000000    0.3180600000000000    0.1847700000000001 Cu
   0.6719300000000000    0.1819400000000000    0.6847700000000000 Cu
   0.5780700000000000    0.4319400000000000    0.6847700000000000 Cu
   0.6719300000000000    0.0680600000000000    0.1847700000000001 Cu
   0.9219300000000000    0.1819400000000000    0.8152300000000000 Cu
   0.8280700000000000    0.3180600000000000    0.3152300000000000 Cu
   0.4219300000000000    0.5680600000000000    0.3152300000000000 Cu
   0.3280700000000000    0.9319300000000000    0.8152300000000000 Cu
   0.0780700000000000    0.8180600000000000    0.1847700000000001 Cu
   0.1719300000000000    0.6819300000000000    0.6847700000000000 Cu
   0.0780700000000000    0.9319300000000000    0.6847700000000000 Cu
   0.1719300000000000    0.5680600000000000    0.1847700000000001 Cu
   0.4219300000000000    0.6819300000000000    0.8152300000000000 Cu
   0.3280700000000000    0.8180600000000000    0.3152300000000000 Cu
   0.9219300000000000    0.5680600000000000    0.3152300000000000 Cu
   0.8280700000000000    0.9319300000000000    0.8152300000000000 Cu
   0.5780700000000000    0.8180600000000000    0.1847700000000001 Cu
   0.6719300000000000    0.6819300000000000    0.6847700000000000 Cu
   0.5780700000000000    0.9319300000000000    0.6847700000000000 Cu
   0.6719300000000000    0.5680600000000000    0.1847700000000001 Cu
   0.9219300000000000    0.6819300000000000    0.8152300000000000 Cu
   0.8280700000000000    0.8180600000000000    0.3152300000000000 Cu
   0.3812000000000000    0.0590000000000000    0.4816000000000000 N
   0.3476000000000000    0.0710500000000000    0.5764000000000000 N
   0.4454500000000000    0.4116000000000000    0.2165000000000000 N
   0.3688000000000000    0.4410000000000000    0.9816000000000000 N
   0.4024000000000000    0.4289500000000000    0.0764000000000000 N
   0.3045500000000000    0.0884000000000000    0.7165000000000000 N
   0.1188000000000000    0.3090000000000000    0.0184000000000000 N
   0.1524000000000000    0.3210500000000000    0.9236000000000000 N
   0.0545500000000000    0.1616000000000000    0.2835000000000000 N
   0.1312000000000000    0.1910000000000000    0.5184000000000000 N
   0.0976000000000000    0.1789500000000000    0.4236000000000000 N
   0.1954500000000000    0.3384000000000000    0.7835000000000000 N
   0.1188000000000000    0.4410000000000000    0.5184000000000000 N
   0.1524000000000000    0.4289500000000000    0.4236000000000000 N
   0.0545500000000000    0.0884000000000000    0.7835000000000000 N
   0.1312000000000000    0.0590000000000000    0.0184000000000000 N
   0.0976000000000000    0.0710500000000000    0.9236000000000000 N
   0.1954500000000000    0.4116000000000000    0.2835000000000000 N
   0.3812000000000000    0.1910000000000000    0.9816000000000000 N
   0.3476000000000000    0.1789500000000000    0.0764000000000000 N
   0.4454500000000000    0.3384000000000000    0.7165000000000000 N
   0.3688000000000000    0.3090000000000000    0.4816000000000000 N
   0.4024000000000000    0.3210500000000000    0.5764000000000000 N
   0.3045500000000000    0.1616000000000000    0.2165000000000000 N
   0.8812000000000000    0.0590000000000000    0.4816000000000000 N
   0.8476000000000000    0.0710500000000000    0.5764000000000000 N
   0.9454500000000000    0.4116000000000000    0.2165000000000000 N
   0.8688000000000000    0.4410000000000000    0.9816000000000000 N
   0.9024000000000000    0.4289500000000000    0.0764000000000000 N
   0.8045500000000000    0.0884000000000000    0.7165000000000000 N
   0.6188000000000000    0.3090000000000000    0.0184000000000000 N
   0.6524000000000000    0.3210500000000000    0.9236000000000000 N
   0.5545500000000000    0.1616000000000000    0.2835000000000000 N
   0.6312000000000000    0.1910000000000000    0.5184000000000000 N
   0.5976000000000000    0.1789500000000000    0.4236000000000000 N
   0.6954500000000000    0.3384000000000000    0.7835000000000000 N
   0.6188000000000000    0.4410000000000000    0.5184000000000000 N
   0.6524000000000000    0.4289500000000000    0.4236000000000000 N
   0.5545500000000000    0.0884000000000000    0.7835000000000000 N
   0.6312000000000000    0.0590000000000000    0.0184000000000000 N
   0.5976000000000000    0.0710500000000000    0.9236000000000000 N
   0.6954500000000000    0.4116000000000000    0.2835000000000000 N
   0.8812000000000000    0.1910000000000000    0.9816000000000000 N
   0.8476000000000000    0.1789500000000000    0.0764000000000000 N
   0.9454500000000000    0.3384000000000000    0.7165000000000000 N
   0.8688000000000000    0.3090000000000000    0.4816000000000000 N
   0.9024000000000000    0.3210500000000000    0.5764000000000000 N
   0.8045500000000000    0.1616000000000000    0.2165000000000000 N
   0.3812000000000000    0.5590000000000001    0.4816000000000000 N
   0.3476000000000000    0.5710499999999999    0.5764000000000000 N
   0.4454500000000000    0.9116000000000000    0.2165000000000000 N
   0.3688000000000000    0.9409999999999999    0.9816000000000000 N
   0.4024000000000000    0.9289500000000001    0.0764000000000000 N
   0.3045500000000000    0.5884000000000000    0.7165000000000000 N
   0.1188000000000000    0.8090000000000001    0.0184000000000000 N
   0.1524000000000000    0.8210499999999999    0.9236000000000000 N
   0.0545500000000000    0.6616000000000000    0.2835000000000000 N
   0.1312000000000000    0.6909999999999999    0.5184000000000000 N
   0.0976000000000000    0.6789500000000001    0.4236000000000000 N
   0.1954500000000000    0.8384000000000000    0.7835000000000000 N
   0.1188000000000000    0.9409999999999999    0.5184000000000000 N
   0.1524000000000000    0.9289500000000001    0.4236000000000000 N
   0.0545500000000000    0.5884000000000000    0.7835000000000000 N
   0.1312000000000000    0.5590000000000001    0.0184000000000000 N
   0.0976000000000000    0.5710499999999999    0.9236000000000000 N
   0.1954500000000000    0.9116000000000000    0.2835000000000000 N
   0.3812000000000000    0.6909999999999999    0.9816000000000000 N
   0.3476000000000000    0.6789500000000001    0.0764000000000000 N
   0.4454500000000000    0.8384000000000000    0.7165000000000000 N
   0.3688000000000000    0.8090000000000001    0.4816000000000000 N
   0.4024000000000000    0.8210499999999999    0.5764000000000000 N
   0.3045500000000000    0.6616000000000000    0.2165000000000000 N
   0.8812000000000000    0.5590000000000001    0.4816000000000000 N
   0.8476000000000000    0.5710499999999999    0.5764000000000000 N
   0.9454500000000000    0.9116000000000000    0.2165000000000000 N
   0.8688000000000000    0.9409999999999999    0.9816000000000000 N
   0.9024000000000000    0.9289500000000001    0.0764000000000000 N
   0.8045500000000000    0.5884000000000000    0.7165000000000000 N
   0.6188000000000000    0.8090000000000001    0.0184000000000000 N
   0.6524000000000000    0.8210499999999999    0.9236000000000000 N
   0.5545500000000000    0.6616000000000000    0.2835000000000000 N
   0.6312000000000000    0.6909999999999999    0.5184000000000000 N
   0.5976000000000000    0.6789500000000001    0.4236000000000000 N
   0.6954500000000000    0.8384000000000000    0.7835000000000000 N
   0.6188000000000000    0.9409999999999999    0.5184000000000000 N
   0.6524000000000000    0.9289500000000001    0.4236000000000000 N
   0.5545500000000000    0.5884000000000000    0.7835000000000000 N
   0.6312000000000000    0.5590000000000001    0.0184000000000000 N
   0.5976000000000000    0.5710499999999999    0.9236000000000000 N
   0.6954500000000000    0.9116000000000000    0.2835000000000000 N
   0.8812000000000000    0.6909999999999999    0.9816000000000000 N
   0.8476000000000000    0.6789500000000001    0.0764000000000000 N
   0.9454500000000000    0.8384000000000000    0.7165000000000000 N
   0.8688000000000000    0.8090000000000001    0.4816000000000000 N
   0.9024000000000000    0.8210499999999999    0.5764000000000000 N
   0.8045500000000000    0.6616000000000000    0.2165000000000000 N
