H48 C48 N96 O96
1.0
  16.8520086374809388    0.0000000000000000   -5.0353335661371847
  -0.0000000000000008   12.4835999999999991    0.0000000000000008
   0.0000000000000000    0.0000000000000000   13.2807999999999993
H C N O
48 48 96 96
direct
   0.2065500000000000    0.6433000000000000    0.9358000000000000 H
   0.3155000000000000    0.5325000000000000    0.9478000000000000 H
   0.1892500000000000    0.8033000000000000    0.6802000000000000 H
   0.1056000000000000    0.6581000000000000    0.6349000000000000 H
   0.2940000000000000    0.4649000000000000    0.6506000000000000 H
   0.3772500000000000    0.6110000000000000    0.6937000000000000 H
   0.0434500000000000    0.1433000000000000    0.5642000000000000 H
   0.9345000000000000    0.0325000000000000    0.5522000000000000 H
   0.0607500000000000    0.3033000000000000    0.8198000000000000 H
   0.1444000000000000    0.1581000000000000    0.8651000000000000 H
   0.9560000000000000    0.9649000000000000    0.8494000000000000 H
   0.8727500000000000    0.1110000000000000    0.8063000000000000 H
   0.2934500000000000    0.3567000000000000    0.0642000000000000 H
   0.1845000000000000    0.4675000000000000    0.0522000000000000 H
   0.3107500000000000    0.1967000000000000    0.3198000000000000 H
   0.3944000000000000    0.3419000000000000    0.3651000000000000 H
   0.2060000000000000    0.5351000000000000    0.3494000000000000 H
   0.1227500000000000    0.3890000000000000    0.3063000000000000 H
   0.4565500000000000    0.8567000000000000    0.4358000000000000 H
   0.5655000000000000    0.9675000000000000    0.4478000000000000 H
   0.4392500000000000    0.6967000000000000    0.1802000000000000 H
   0.3556000000000000    0.8419000000000000    0.1349000000000000 H
   0.5440000000000000    0.0350999999999999    0.1506000000000000 H
   0.6272500000000000    0.8890000000000000    0.1937000000000000 H
   0.7065500000000000    0.6433000000000000    0.9358000000000000 H
   0.8155000000000000    0.5325000000000000    0.9478000000000000 H
   0.6892500000000000    0.8033000000000000    0.6802000000000000 H
   0.6056000000000000    0.6581000000000000    0.6349000000000000 H
   0.7940000000000000    0.4649000000000000    0.6506000000000000 H
   0.8772500000000000    0.6110000000000000    0.6937000000000000 H
   0.5434500000000000    0.1433000000000000    0.5642000000000000 H
   0.4345000000000000    0.0325000000000000    0.5522000000000000 H
   0.5607500000000000    0.3033000000000000    0.8198000000000000 H
   0.6444000000000000    0.1581000000000000    0.8651000000000000 H
   0.4560000000000000    0.9649000000000000    0.8494000000000000 H
   0.3727500000000000    0.1110000000000000    0.8063000000000000 H
   0.7934500000000000    0.3567000000000000    0.0642000000000000 H
   0.6845000000000000    0.4675000000000000    0.0522000000000000 H
   0.8107500000000000    0.1967000000000000    0.3198000000000000 H
   0.8944000000000000    0.3419000000000000    0.3651000000000000 H
   0.7060000000000000    0.5351000000000000    0.3494000000000000 H
   0.6227500000000000    0.3890000000000000    0.3063000000000000 H
   0.9565500000000000    0.8567000000000000    0.4358000000000000 H
   0.0654999999999999    0.9675000000000000    0.4478000000000000 H
   0.9392500000000000    0.6967000000000000    0.1802000000000000 H
   0.8556000000000000    0.8419000000000000    0.1349000000000000 H
   0.0440000000000000    0.0350999999999999    0.1506000000000000 H
   0.1272500000000001    0.8890000000000000    0.1937000000000000 H
   0.2189000000000000    0.6372400000000000    0.8670800000000000 C
   0.2932000000000000    0.5617300000000000    0.8751700000000000 C
   0.2160500000000000    0.7360800000000000    0.7130700000000000 C
   0.1584000000000000    0.6366900000000000    0.6827900000000000 C
   0.2734500000000000    0.5186200000000000    0.6921900000000000 C
   0.3303000000000000    0.6190700000000000    0.7213700000000000 C
   0.0311000000000000    0.1372400000000000    0.6329200000000000 C
   0.9568000000000000    0.0617300000000000    0.6248300000000000 C
   0.0339500000000000    0.2360800000000000    0.7869300000000000 C
   0.0916000000000000    0.1366900000000000    0.8172100000000000 C
   0.9765500000000000    0.0186200000000000    0.8078100000000000 C
   0.9197000000000000    0.1190700000000000    0.7786300000000000 C
   0.2811000000000000    0.3627600000000000    0.1329200000000000 C
   0.2068000000000000    0.4382700000000000    0.1248300000000000 C
   0.2839500000000000    0.2639200000000000    0.2869300000000000 C
   0.3416000000000000    0.3633100000000000    0.3172100000000000 C
   0.2265500000000000    0.4813800000000000    0.3078100000000000 C
   0.1697000000000000    0.3809300000000000    0.2786300000000000 C
   0.4689000000000000    0.8627600000000000    0.3670800000000000 C
   0.5432000000000000    0.9382700000000000    0.3751700000000000 C
   0.4660500000000000    0.7639200000000000    0.2130700000000000 C
   0.4084000000000000    0.8633100000000000    0.1827900000000000 C
   0.5234500000000000    0.9813800000000000    0.1921900000000000 C
   0.5803000000000000    0.8809300000000000    0.2213700000000000 C
   0.7189000000000000    0.6372400000000000    0.8670800000000000 C
   0.7932000000000000    0.5617300000000000    0.8751700000000000 C
   0.7160500000000000    0.7360800000000000    0.7130700000000000 C
   0.6584000000000000    0.6366900000000000    0.6827900000000000 C
   0.7734500000000000    0.5186200000000000    0.6921900000000000 C
   0.8303000000000000    0.6190700000000000    0.7213700000000000 C
   0.5311000000000000    0.1372400000000000    0.6329200000000000 C
   0.4568000000000000    0.0617300000000000    0.6248300000000000 C
   0.5339500000000000    0.2360800000000000    0.7869300000000000 C
   0.5916000000000000    0.1366900000000000    0.8172100000000000 C
   0.4765500000000000    0.0186200000000000    0.8078100000000000 C
   0.4197000000000000    0.1190700000000000    0.7786300000000000 C
   0.7811000000000000    0.3627600000000000    0.1329200000000000 C
   0.7068000000000000    0.4382700000000000    0.1248300000000000 C
   0.7839500000000000    0.2639200000000000    0.2869300000000000 C
   0.8416000000000000    0.3633100000000000    0.3172100000000000 C
   0.7265500000000000    0.4813800000000000    0.3078100000000000 C
   0.6697000000000000    0.3809300000000000    0.2786300000000000 C
   0.9689000000000000    0.8627600000000000    0.3670800000000000 C
   0.0431999999999999    0.9382700000000000    0.3751700000000000 C
   0.9660500000000000    0.7639200000000000    0.2130700000000000 C
   0.9084000000000000    0.8633100000000000    0.1827900000000000 C
   0.0234500000000000    0.9813800000000000    0.1921900000000000 C
   0.0803000000000000    0.8809300000000000    0.2213700000000000 C
   0.2367200000000000    0.7416199999999999    0.8288600000000000 N
   0.2090100000000000    0.8327500000000000    0.8730100000000000 N
   0.1511800000000000    0.5970600000000000    0.7839800000000000 N
   0.0751100000000000    0.6067200000000000    0.8024300000000000 N
   0.2763500000000000    0.4769900000000000    0.7966600000000000 N
   0.2254900000000000    0.3962400000000000    0.8047100000000000 N
   0.1949800000000000    0.5543000000000000    0.6359399999999999 N
   0.1566000000000000    0.5115800000000000    0.5379100000000000 N
   0.2845700000000000    0.7131600000000000    0.6783200000000000 N
   0.3241500000000000    0.7990800000000000    0.6456400000000000 N
   0.3541800000000000    0.6139800000000000    0.8374300000000000 N
   0.3936000000000000    0.6994800000000000    0.8954000000000000 N
   0.0132800000000000    0.2416200000000000    0.6711400000000000 N
   0.0409900000000000    0.3327500000000000    0.6269900000000000 N
   0.0988200000000000    0.0970600000000000    0.7160200000000000 N
   0.1748900000000000    0.1067200000000000    0.6975700000000000 N
   0.9736500000000000    0.9769900000000000    0.7033400000000000 N
   0.0245100000000000    0.8962400000000000    0.6952900000000000 N
   0.0550200000000000    0.0543000000000000    0.8640600000000001 N
   0.0934000000000000    0.0115800000000000    0.9620900000000000 N
   0.9654300000000000    0.2131600000000000    0.8216800000000000 N
   0.9258500000000001    0.2990800000000000    0.8543600000000000 N
   0.8958300000000000    0.1139800000000000    0.6625700000000000 N
   0.8564000000000001    0.1994800000000000    0.6046000000000000 N
   0.2632700000000000    0.2583800000000000    0.1711400000000000 N
   0.2909900000000000    0.1672500000000000    0.1269900000000000 N
   0.3488200000000000    0.4029400000000000    0.2160200000000000 N
   0.4248900000000000    0.3932800000000000    0.1975700000000000 N
   0.2236400000000000    0.5230100000000000    0.2033400000000000 N
   0.2745100000000000    0.6037600000000000    0.1952900000000000 N
   0.3050200000000000    0.4457000000000000    0.3640600000000000 N
   0.3434000000000000    0.4884200000000000    0.4620900000000000 N
   0.2154300000000000    0.2868400000000000    0.3216800000000000 N
   0.1758500000000000    0.2009200000000000    0.3543600000000000 N
   0.1458200000000000    0.3860200000000000    0.1625700000000000 N
   0.1064000000000000    0.3005200000000000    0.1046000000000000 N
   0.4867200000000000    0.7583800000000001    0.3288600000000000 N
   0.4590100000000000    0.6672500000000000    0.3730100000000000 N
   0.4011800000000000    0.9029400000000000    0.2839800000000000 N
   0.3251100000000000    0.8932800000000000    0.3024300000000000 N
   0.5263500000000000    0.0230100000000000    0.2966600000000000 N
   0.4754900000000000    0.1037600000000001    0.3047100000000000 N
   0.4449800000000000    0.9457000000000000    0.1359400000000000 N
   0.4066000000000000    0.9884200000000000    0.0379100000000000 N
   0.5345700000000000    0.7868400000000000    0.1783200000000000 N
   0.5741500000000000    0.7009200000000000    0.1456400000000000 N
   0.6041700000000000    0.8860200000000000    0.3374300000000000 N
   0.6435999999999999    0.8005200000000000    0.3954000000000000 N
   0.7367200000000000    0.7416199999999999    0.8288600000000000 N
   0.7090100000000000    0.8327500000000000    0.8730100000000000 N
   0.6511800000000000    0.5970600000000000    0.7839800000000000 N
   0.5751100000000000    0.6067200000000000    0.8024300000000000 N
   0.7763500000000000    0.4769900000000000    0.7966600000000000 N
   0.7254900000000000    0.3962400000000000    0.8047100000000000 N
   0.6949800000000000    0.5543000000000000    0.6359399999999999 N
   0.6566000000000000    0.5115800000000000    0.5379100000000000 N
   0.7845700000000000    0.7131600000000000    0.6783200000000000 N
   0.8241500000000000    0.7990800000000000    0.6456400000000000 N
   0.8541700000000000    0.6139800000000000    0.8374300000000000 N
   0.8935999999999999    0.6994800000000000    0.8954000000000000 N
   0.5132800000000000    0.2416200000000000    0.6711400000000000 N
   0.5409900000000000    0.3327500000000000    0.6269900000000000 N
   0.5988200000000000    0.0970600000000000    0.7160200000000000 N
   0.6748900000000000    0.1067200000000000    0.6975700000000000 N
   0.4736500000000000    0.9769900000000000    0.7033400000000000 N
   0.5245100000000000    0.8962400000000000    0.6952900000000000 N
   0.5550200000000000    0.0543000000000000    0.8640600000000001 N
   0.5934000000000000    0.0115800000000000    0.9620900000000000 N
   0.4654300000000000    0.2131600000000000    0.8216800000000000 N
   0.4258500000000000    0.2990800000000000    0.8543600000000000 N
   0.3958200000000000    0.1139800000000000    0.6625700000000000 N
   0.3564000000000000    0.1994800000000000    0.6046000000000000 N
   0.7632800000000000    0.2583800000000000    0.1711400000000000 N
   0.7909900000000000    0.1672500000000000    0.1269900000000000 N
   0.8488200000000000    0.4029400000000000    0.2160200000000000 N
   0.9248900000000000    0.3932800000000000    0.1975700000000000 N
   0.7236399999999999    0.5230100000000000    0.2033400000000000 N
   0.7745100000000000    0.6037600000000000    0.1952900000000000 N
   0.8050200000000000    0.4457000000000000    0.3640600000000000 N
   0.8434000000000000    0.4884200000000000    0.4620900000000000 N
   0.7154300000000000    0.2868400000000000    0.3216800000000000 N
   0.6758500000000000    0.2009200000000000    0.3543600000000000 N
   0.6458199999999999    0.3860200000000000    0.1625700000000000 N
   0.6064000000000001    0.3005200000000000    0.1046000000000000 N
   0.9867200000000000    0.7583800000000001    0.3288600000000000 N
   0.9590100000000000    0.6672500000000000    0.3730100000000000 N
   0.9011800000000000    0.9029400000000000    0.2839800000000000 N
   0.8251100000000000    0.8932800000000000    0.3024300000000000 N
   0.0263500000000001    0.0230100000000000    0.2966600000000000 N
   0.9754900000000000    0.1037600000000001    0.3047100000000000 N
   0.9449800000000000    0.9457000000000000    0.1359400000000000 N
   0.9066000000000000    0.9884200000000000    0.0379100000000000 N
   0.0345700000000000    0.7868400000000000    0.1783200000000000 N
   0.0741499999999999    0.7009200000000000    0.1456400000000000 N
   0.1041700000000001    0.8860200000000000    0.3374300000000000 N
   0.1435999999999999    0.8005200000000000    0.3954000000000000 N
   0.2010500000000000    0.9144200000000000    0.8212100000000000 O
   0.2005900000000000    0.8210000000000000    0.9595500000000000 O
   0.0749400000000000    0.5972900000000000    0.8934600000000000 O
   0.0185300000000000    0.6170700000000000    0.7256100000000000 O
   0.2102900000000000    0.3872300000000000    0.8890900000000000 O
   0.2015100000000000    0.3390500000000000    0.7279099999999999 O
   0.0954100000000000    0.5548500000000000    0.4892600000000000 O
   0.1882400000000000    0.4352700000000000    0.5090200000000000 O
   0.3816100000000000    0.7758900000000000    0.6169900000000000 O
   0.2949700000000000    0.8876500000000001    0.6458100000000000 O
   0.4242600000000000    0.7632600000000000    0.8495900000000000 O
   0.3951700000000000    0.7011600000000000    0.9879900000000000 O
   0.0489500000000000    0.4144200000000000    0.6787900000000000 O
   0.0494100000000000    0.3210000000000000    0.5404500000000000 O
   0.1750600000000000    0.0972900000000000    0.6065400000000000 O
   0.2314700000000000    0.1170700000000000    0.7743900000000000 O
   0.0397100000000000    0.8872300000000000    0.6109100000000000 O
   0.0484900000000000    0.8390500000000000    0.7720900000000001 O
   0.1545900000000000    0.0548500000000000    0.0107400000000000 O
   0.0617600000000000    0.9352700000000000    0.9909800000000000 O
   0.8683900000000000    0.2758900000000000    0.8830100000000000 O
   0.9550300000000000    0.3876500000000000    0.8541900000000000 O
   0.8257400000000000    0.2632600000000000    0.6504100000000000 O
   0.8548300000000000    0.2011600000000000    0.5120100000000000 O
   0.2989500000000000    0.0855800000000000    0.1787900000000000 O
   0.2994100000000000    0.1790000000000000    0.0404500000000000 O
   0.4250600000000000    0.4027100000000000    0.1065400000000000 O
   0.4814700000000000    0.3829300000000000    0.2743900000000000 O
   0.2897100000000000    0.6127700000000000    0.1109100000000000 O
   0.2984900000000000    0.6609500000000000    0.2720900000000000 O
   0.4045900000000000    0.4451500000000000    0.5107400000000000 O
   0.3117600000000000    0.5647300000000000    0.4909800000000000 O
   0.1183900000000000    0.2241100000000000    0.3830100000000000 O
   0.2050300000000000    0.1123500000000000    0.3541900000000000 O
   0.0757400000000000    0.2367400000000000    0.1504100000000000 O
   0.1048300000000000    0.2988400000000000    0.0120100000000000 O
   0.4510500000000000    0.5855800000000000    0.3212100000000000 O
   0.4505900000000000    0.6790000000000000    0.4595500000000000 O
   0.3249400000000000    0.9027100000000000    0.3934600000000000 O
   0.2685300000000000    0.8829300000000000    0.2256100000000000 O
   0.4602900000000000    0.1127700000000000    0.3890900000000000 O
   0.4515100000000000    0.1609499999999999    0.2279100000000000 O
   0.3454100000000000    0.9451500000000000    0.9892600000000000 O
   0.4382400000000000    0.0647300000000000    0.0090200000000000 O
   0.6316100000000000    0.7241100000000000    0.1169900000000000 O
   0.5449700000000000    0.6123499999999999    0.1458100000000000 O
   0.6742600000000000    0.7367400000000000    0.3495900000000000 O
   0.6451700000000000    0.7988400000000000    0.4879900000000000 O
   0.7010500000000000    0.9144200000000000    0.8212100000000000 O
   0.7005900000000000    0.8210000000000000    0.9595500000000000 O
   0.5749400000000000    0.5972900000000000    0.8934600000000000 O
   0.5185300000000000    0.6170700000000000    0.7256100000000000 O
   0.7102900000000000    0.3872300000000000    0.8890900000000000 O
   0.7015100000000000    0.3390500000000000    0.7279099999999999 O
   0.5954100000000000    0.5548500000000000    0.4892600000000000 O
   0.6882300000000000    0.4352700000000000    0.5090200000000000 O
   0.8816100000000000    0.7758900000000000    0.6169900000000000 O
   0.7949700000000000    0.8876500000000001    0.6458100000000000 O
   0.9242600000000000    0.7632600000000000    0.8495900000000000 O
   0.8951700000000000    0.7011600000000000    0.9879900000000000 O
   0.5489500000000000    0.4144200000000000    0.6787900000000000 O
   0.5494100000000000    0.3210000000000000    0.5404500000000000 O
   0.6750600000000000    0.0972900000000000    0.6065400000000000 O
   0.7314700000000000    0.1170700000000000    0.7743900000000000 O
   0.5397100000000000    0.8872300000000000    0.6109100000000000 O
   0.5484900000000000    0.8390500000000000    0.7720900000000001 O
   0.6545900000000000    0.0548500000000000    0.0107400000000000 O
   0.5617700000000000    0.9352700000000000    0.9909800000000000 O
   0.3683900000000000    0.2758900000000000    0.8830100000000000 O
   0.4550300000000000    0.3876500000000000    0.8541900000000000 O
   0.3257400000000000    0.2632600000000000    0.6504100000000000 O
   0.3548300000000000    0.2011600000000000    0.5120100000000000 O
   0.7989500000000000    0.0855800000000000    0.1787900000000000 O
   0.7994100000000000    0.1790000000000000    0.0404500000000000 O
   0.9250600000000000    0.4027100000000000    0.1065400000000000 O
   0.9814700000000000    0.3829300000000000    0.2743900000000000 O
   0.7897100000000000    0.6127700000000000    0.1109100000000000 O
   0.7984900000000000    0.6609500000000000    0.2720900000000000 O
   0.9045900000000000    0.4451500000000000    0.5107400000000000 O
   0.8117600000000000    0.5647300000000000    0.4909800000000000 O
   0.6183900000000000    0.2241100000000000    0.3830100000000000 O
   0.7050300000000000    0.1123500000000000    0.3541900000000000 O
   0.5757400000000000    0.2367400000000000    0.1504100000000000 O
   0.6048300000000000    0.2988400000000000    0.0120100000000000 O
   0.9510500000000000    0.5855800000000000    0.3212100000000000 O
   0.9505900000000000    0.6790000000000000    0.4595500000000000 O
   0.8249400000000000    0.9027100000000000    0.3934600000000000 O
   0.7685300000000000    0.8829300000000000    0.2256100000000000 O
   0.9602900000000000    0.1127700000000000    0.3890900000000000 O
   0.9515100000000000    0.1609499999999999    0.2279100000000000 O
   0.8454100000000000    0.9451500000000000    0.9892600000000000 O
   0.9382300000000000    0.0647300000000000    0.0090200000000000 O
   0.1315999999999999    0.7241100000000000    0.1169900000000000 O
   0.0449700000000000    0.6123499999999999    0.1458100000000000 O
   0.1742600000000001    0.7367400000000000    0.3495900000000000 O
   0.1451700000000000    0.7988400000000000    0.4879900000000000 O
