H216 N108 O162
1.0
  16.3380000000000010    0.0000000000000000    0.0000000000000010
  -0.0000000000000011   17.2815000000000012    0.0000000000000011
   0.0000000000000000    0.0000000000000000   14.8217999999999996
H N O
216 108 162
direct
   0.0848933800000000    0.1330858400000000    0.2674919700000000 H
   0.0848930700000000    0.0335238500000000    0.2675785700000000 H
   0.2500005100000000    0.2997610800000000    0.0656724300000000 H
   0.2499997800000000    0.2003023900000000    0.0657658800000000 H
   0.0332260900000000    0.0833569500000000    0.3470126600000000 H
   0.1361015200000000    0.0833567200000000    0.3474720100000000 H
   0.3014952400000000    0.2499761500000000    0.9859983600000000 H
   0.1985050600000000    0.2499764600000000    0.9859980800000000 H
   0.4151069000000000    0.1330857700000000    0.2674917600000000 H
   0.4151072600000000    0.0335238300000000    0.2675785600000000 H
   0.5848932300000000    0.2998152300000000    0.0657491900000000 H
   0.5848936700000000    0.2002530200000000    0.0658480200000000 H
   0.3638986600000000    0.0833568100000000    0.3474713000000000 H
   0.4667740200000000    0.0833570000000000    0.3470129300000000 H
   0.6361016500000000    0.2499755700000000    0.9858622300000000 H
   0.5332265100000000    0.2499753800000000    0.9863211700000000 H
   0.7500000000000000    0.1330362600000000    0.2675743900000000 H
   0.7500000600000000    0.0335779800000000    0.2676554400000000 H
   0.9151067300000000    0.2998150700000000    0.0657493800000000 H
   0.9151064600000000    0.2002528200000000    0.0658479100000000 H
   0.6985047800000000    0.0833558000000000    0.3473360100000000 H
   0.8014950500000000    0.0833557800000000    0.3473360900000000 H
   0.9667739100000000    0.2499753100000000    0.9863213500000000 H
   0.8638988399999999    0.2499755400000000    0.9858623600000000 H
   0.0848928600000000    0.4664413800000000    0.2675269000000000 H
   0.0848928400000000    0.3668788700000000    0.2675454400000000 H
   0.2500002300000000    0.6330961400000000    0.0656710000000000 H
   0.2500005200000000    0.5336378000000001    0.0657679300000000 H
   0.0332262300000000    0.4166710800000000    0.3470136500000000 H
   0.1361014200000000    0.4166711000000000    0.3474720400000000 H
   0.3014954700000000    0.5833095400000000    0.9859984100000000 H
   0.1985050400000000    0.5833094000000000    0.9859981000000000 H
   0.4151074400000000    0.4664413500000000    0.2675264800000000 H
   0.4151074300000000    0.3668784700000000    0.2675456500000000 H
   0.5848934300000000    0.6331505800000000    0.0657475200000000 H
   0.5848934500000000    0.5335884800000000    0.0658507000000000 H
   0.3638987300000000    0.4166712800000000    0.3474720700000000 H
   0.4667739100000000    0.4166713100000000    0.3470134300000000 H
   0.6361017300000000    0.5833082800000000    0.9858624400000000 H
   0.5332263500000000    0.5833082700000000    0.9863214200000000 H
   0.7499996900000000    0.4663893700000000    0.2676062900000000 H
   0.7500000000000000    0.3669305500000000    0.2676258200000000 H
   0.9151067500000000    0.6331504700000000    0.0657475900000000 H
   0.9151064600000000    0.5335885200000000    0.0658506600000000 H
   0.6985051000000000    0.4166715500000000    0.3473371600000000 H
   0.8014950300000000    0.4166716600000000    0.3473365600000000 H
   0.9667740700000000    0.5833083000000000    0.9863215400000001 H
   0.8638987900000000    0.5833083300000000    0.9858625900000000 H
   0.0848928200000000    0.7997767099999999    0.2675296100000000 H
   0.0848929700000000    0.7002142700000000    0.2675418700000000 H
   0.2499997000000000    0.9664023000000000    0.0657110600000000 H
   0.2500001600000000    0.8669435200000000    0.0657259500000000 H
   0.0332261200000000    0.7500026600000000    0.3470133800000000 H
   0.1361013700000000    0.7500028500000000    0.3474720600000000 H
   0.3014951400000000    0.9166646300000000    0.9859978000000000 H
   0.1985050900000000    0.9166644600000000    0.9859973900000000 H
   0.4151073900000000    0.7997766200000000    0.2675295900000000 H
   0.4151072300000000    0.7002140200000000    0.2675420400000000 H
   0.5848933300000000    0.9664541800000001    0.0657911000000000 H
   0.5848931100000000    0.8668916300000000    0.0658054800000000 H
   0.3638983000000000    0.7500027700000000    0.3474717600000000 H
   0.4667736100000000    0.7500025700000000    0.3470138900000000 H
   0.6361017500000000    0.9166648400000000    0.9858622100000000 H
   0.5332265000000000    0.9166650900000000    0.9863205200000000 H
   0.7499999100000000    0.7997247100000000    0.2676091500000000 H
   0.7499995600000000    0.7002662300000000    0.2676218000000000 H
   0.9151067500000000    0.9664542600000000    0.0657910300000000 H
   0.9151070800000000    0.8668916000000000    0.0658053300000000 H
   0.6985047400000000    0.7500030500000000    0.3473366600000000 H
   0.8014947600000000    0.7500029800000000    0.3473368100000000 H
   0.9667738000000000    0.9166652100000000    0.9863206400000000 H
   0.8638986100000000    0.9166648700000000    0.9858620700000000 H
   0.0848934300000000    0.1330857900000000    0.6008250400000000 H
   0.0848930800000000    0.0335238200000000    0.6009117700000000 H
   0.2499999000000000    0.2997610500000000    0.3990044100000000 H
   0.2499997400000000    0.2003021700000000    0.3990974000000000 H
   0.0332260600000000    0.0833569600000000    0.6803457900000000 H
   0.1361014300000000    0.0833567700000000    0.6808052000000000 H
   0.3014949500000000    0.2499765100000000    0.3193299600000000 H
   0.1985049100000000    0.2499763500000000    0.3193301200000000 H
   0.4151069400000000    0.1330857900000000    0.6008250800000000 H
   0.4151072300000000    0.0335239000000000    0.6009116799999999 H
   0.5848936700000000    0.2998153500000000    0.3990808200000000 H
   0.5848939200000000    0.2002529700000000    0.3991797800000000 H
   0.3638987100000000    0.0833567100000000    0.6808045900000000 H
   0.4667740100000000    0.0833569700000000    0.6803460600000000 H
   0.6361018700000000    0.2499755400000000    0.3191940900000000 H
   0.5332268300000000    0.2499753600000000    0.3196527800000000 H
   0.7499998400000000    0.1330362000000000    0.6009074900000000 H
   0.7499998600000000    0.0335779100000000    0.6009887600000000 H
   0.9151066100000000    0.2998151900000000    0.3990808800000000 H
   0.9151062900000000    0.2002528800000000    0.3991796700000000 H
   0.6985047800000000    0.0833558800000000    0.6806693700000001 H
   0.8014950400000000    0.0833558100000000    0.6806692600000001 H
   0.9667733200000000    0.2499752600000000    0.3196527100000000 H
   0.8638983200000000    0.2499754600000000    0.3191942000000000 H
   0.0848929400000000    0.4664412900000000    0.6008598900000000 H
   0.0848929300000000    0.3668787400000000    0.6008787100000000 H
   0.2500001000000000    0.6330963100000000    0.3990028600000000 H
   0.2500000600000000    0.5336377800000000    0.3991001000000000 H
   0.0332263900000000    0.4166711800000000    0.6803467800000000 H
   0.1361016600000000    0.4166711800000000    0.6808055500000000 H
   0.3014951100000000    0.5833092800000000    0.3193301100000000 H
   0.1985048800000000    0.5833094000000000    0.3193304800000000 H
   0.4151073800000000    0.4664412200000000    0.6008597500000000 H
   0.4151073900000000    0.3668784400000000    0.6008791600000000 H
   0.5848937000000000    0.6331505500000000    0.3990790800000000 H
   0.5848938800000000    0.5335883800000000    0.3991821500000000 H
   0.3638987200000000    0.4166713300000000    0.6808048700000000 H
   0.4667737500000000    0.4166713100000000    0.6803469100000000 H
   0.6361023300000000    0.5833082700000000    0.3191942400000000 H
   0.5332269600000000    0.5833083700000000    0.3196526100000000 H
   0.7499996400000000    0.4663897000000000    0.6009396900000000 H
   0.7499996400000000    0.3669308600000000    0.6009584000000000 H
   0.9151064600000000    0.6331506800000000    0.3990790000000000 H
   0.9151063600000000    0.5335885700000000    0.3991824200000000 H
   0.6985049100000000    0.4166714200000000    0.6806701900000000 H
   0.8014948300000000    0.4166714200000000    0.6806697700000000 H
   0.9667734400000000    0.5833082700000000    0.3196528000000000 H
   0.8638982600000000    0.5833082700000000    0.3191946300000000 H
   0.0848929000000000    0.7997766100000000    0.6008627600000001 H
   0.0848931200000000    0.7002142099999999    0.6008751900000000 H
   0.2499997500000000    0.9664021600000000    0.3990433200000000 H
   0.2499999200000000    0.8669432200000000    0.3990577000000000 H
   0.0332263800000000    0.7500026400000001    0.6803468200000000 H
   0.1361017100000000    0.7500028600000000    0.6808053800000000 H
   0.3014950600000000    0.9166646200000000    0.3193297700000000 H
   0.1985051400000000    0.9166647200000000    0.3193294100000000 H
   0.4151074100000000    0.7997766500000000    0.6008626800000000 H
   0.4151072400000000    0.7002141100000000    0.6008751600000000 H
   0.5848935700000000    0.9664543100000000    0.3991226100000000 H
   0.5848933600000000    0.8668915600000000    0.3991370200000000 H
   0.3638985600000000    0.7500028500000000    0.6808048300000000 H
   0.4667738000000000    0.7500025900000000    0.6803469100000000 H
   0.6361022800000000    0.9166648600000000    0.3191942400000000 H
   0.5332271600000000    0.9166650300000000    0.3196517300000000 H
   0.7499998800000000    0.7997245200000000    0.6009420599999999 H
   0.7499998400000000    0.7002660100000000    0.6009552200000000 H
   0.9151066000000000    0.9664542400000000    0.3991227700000000 H
   0.9151068000000000    0.8668914800000000    0.3991368900000000 H
   0.6985049600000000    0.7500031000000000    0.6806700000000000 H
   0.8014948900000000    0.7500031500000000    0.6806697900000001 H
   0.9667731899999999    0.9166652500000000    0.3196520400000000 H
   0.8638980800000000    0.9166649500000000    0.3191939900000000 H
   0.0848934600000000    0.1330859500000000    0.9341604400000000 H
   0.0848931400000000    0.0335238200000000    0.9342469500000000 H
   0.2499994700000000    0.2997611400000000    0.7323375000000000 H
   0.2499997700000000    0.2003022500000000    0.7324308100000000 H
   0.0332265100000000    0.0833569100000000    0.0136813900000000 H
   0.1361018300000000    0.0833567100000000    0.0141400700000000 H
   0.3014950500000000    0.2499764500000000    0.6526636099999999 H
   0.1985050400000000    0.2499762400000000    0.6526630500000000 H
   0.4151068200000000    0.1330859000000000    0.9341604999999999 H
   0.4151072100000000    0.0335238400000000    0.9342470200000000 H
   0.5848936900000000    0.2998153100000000    0.7324141000000000 H
   0.5848938600000000    0.2002529700000000    0.7325130500000000 H
   0.3638982700000000    0.0833566900000000    0.0141395800000000 H
   0.4667735400000000    0.0833570100000000    0.0136817100000000 H
   0.6361022700000000    0.2499754400000000    0.6525275200000000 H
   0.5332271500000000    0.2499753700000000    0.6529857700000000 H
   0.7499997600000000    0.1330362900000000    0.9342426300000000 H
   0.7499999400000000    0.0335778800000000    0.9343238300000000 H
   0.9151066700000000    0.2998152200000000    0.7324141700000000 H
   0.9151063200000000    0.2002528700000000    0.7325129400000000 H
   0.6985047200000000    0.0833558100000000    0.0140042500000000 H
   0.8014949099999999    0.0833558400000000    0.0140044500000000 H
   0.9667734300000000    0.2499752900000000    0.6529860400000000 H
   0.8638984400000000    0.2499755300000000    0.6525276200000000 H
   0.0848929700000000    0.4664416600000000    0.9341952800000000 H
   0.0848929600000000    0.3668786900000000    0.9342137200000000 H
   0.2499996900000000    0.6330963700000000    0.7323359600000000 H
   0.2499995200000000    0.5336378700000000    0.7324333700000000 H
   0.0332265600000000    0.4166710500000000    0.0136820400000000 H
   0.1361015400000000    0.4166711000000000    0.0141399600000000 H
   0.3014951500000000    0.5833092800000000    0.6526635800000000 H
   0.1985048200000000    0.5833093400000000    0.6526632900000000 H
   0.4151073300000000    0.4664414000000000    0.9341954300000000 H
   0.4151072800000000    0.3668788000000000    0.9342140900000000 H
   0.5848936600000000    0.6331504200000000    0.7324126500000000 H
   0.5848939600000000    0.5335882600000000    0.7325153100000000 H
   0.3638976700000000    0.4166712000000000    0.0141402000000000 H
   0.4667729900000000    0.4166711300000000    0.0136829100000000 H
   0.6361023600000000    0.5833084500000000    0.6525277200000000 H
   0.5332270600000000    0.5833083400000000    0.6529859500000000 H
   0.7499996700000000    0.4663898100000000    0.9342749100000000 H
   0.7499995800000000    0.3669308300000000    0.9342934700000000 H
   0.9151065200000000    0.6331504800000000    0.7324125000000000 H
   0.9151063900000000    0.5335883600000000    0.7325153800000000 H
   0.6985047500000000    0.4166714700000000    0.0140048000000000 H
   0.8014945600000000    0.4166713200000000    0.0140050800000000 H
   0.9667734000000000    0.5833083800000000    0.6529860800000000 H
   0.8638982100000000    0.5833083200000000    0.6525278700000000 H
   0.0848929200000000    0.7997767000000000    0.9341978000000000 H
   0.0848930900000000    0.7002139900000000    0.9342104200000000 H
   0.2499997400000000    0.9664021000000000    0.7323765800000001 H
   0.2499995900000000    0.8669432200000000    0.7323908000000000 H
   0.0332265300000000    0.7500027500000001    0.0136821200000000 H
   0.1361016800000000    0.7500029200000000    0.0141400400000000 H
   0.3014949500000000    0.9166646200000000    0.6526628400000000 H
   0.1985049300000000    0.9166647900000000    0.6526626100000000 H
   0.4151074100000000    0.7997765200000000    0.9341978700000000 H
   0.4151072400000000    0.7002139900000000    0.9342106600000000 H
   0.5848935900000000    0.9664544100000000    0.7324558100000000 H
   0.5848933300000000    0.8668917400000000    0.7324705800000000 H
   0.3638981200000000    0.7500028900000000    0.0141401800000000 H
   0.4667733900000000    0.7500026400000001    0.0136823900000000 H
   0.6361022100000000    0.9166647600000000    0.6525273600000000 H
   0.5332270700000000    0.9166650200000001    0.6529852900000001 H
   0.7499998300000000    0.7997246000000000    0.9342773400000000 H
   0.7499997400000000    0.7002659700000000    0.9342904400000001 H
   0.9151066300000000    0.9664542800000000    0.7324559800000000 H
   0.9151068900000000    0.8668915300000000    0.7324702000000000 H
   0.6985049800000001    0.7500030800000000    0.0140052100000000 H
   0.8014949200000000    0.7500031800000000    0.0140049100000000 H
   0.9667731600000000    0.9166651700000000    0.6529851900000000 H
   0.8638980700000000    0.9166649200000000    0.6525274800000000 H
   0.0848908800000000    0.2500004300000000    0.1683338400000000 N
   0.2499972100000000    0.0833348400000000    0.1650271200000000 N
   0.0847595100000000    0.0833307000000000    0.3067019500000000 N
   0.2500000700000000    0.2500037900000000    0.0265153100000000 N
   0.4151027100000000    0.2500002400000000    0.1683339300000000 N
   0.5848987900000000    0.0833347700000000    0.1649993100000000 N
   0.4152408400000000    0.0833307100000000    0.3067018300000000 N
   0.5847596500000000    0.2500045600000000    0.0266321300000000 N
   0.7500043800000000    0.2500003200000000    0.1683059600000000 N
   0.9150993300000000    0.0833347300000000    0.1649993200000000 N
   0.7499999400000000    0.0833313200000000    0.3068189400000000 N
   0.9152406900000000    0.2500044600000000    0.0266322200000000 N
   0.0848875900000000    0.5833322900000000    0.1683328600000000 N
   0.2500006800000000    0.4166647800000000    0.1650280500000000 N
   0.0847592800000000    0.4166656500000000    0.3067023900000000 N
   0.2500001700000000    0.5833379000000000    0.0265153800000000 N
   0.4151087100000000    0.5833324100000000    0.1683329900000000 N
   0.5848889900000001    0.4166644900000000    0.1650003800000000 N
   0.4152407900000000    0.4166656500000000    0.3067022600000000 N
   0.5847596500000000    0.5833385900000000    0.0266324100000000 N
   0.7500041700000000    0.5833322100000000    0.1683053800000000 N
   0.9150989000000000    0.4166645500000000    0.1650005500000000 N
   0.7499998600000000    0.4166657900000000    0.3068195700000000 N
   0.9152407100000000    0.5833385900000000    0.0266324700000000 N
   0.0848905600000000    0.9166689600000000    0.1683317500000000 N
   0.2499979900000000    0.7499993500000000    0.1650294300000000 N
   0.0847593100000000    0.7499991700000000    0.3067021400000000 N
   0.2500000100000000    0.9166684400000000    0.0265148900000000 N
   0.4151147200000000    0.9166690000000000    0.1683317900000000 N
   0.5849031500000000    0.7499992599999999    0.1650019800000000 N
   0.4152406900000000    0.7499990500000000    0.3067022100000000 N
   0.5847595700000000    0.9166685900000000    0.0266319300000000 N
   0.7500036600000000    0.9166689300000000    0.1683042000000000 N
   0.9151063000000000    0.7499991800000000    0.1650019600000000 N
   0.7499998200000000    0.7499992599999999    0.3068193300000000 N
   0.9152406600000000    0.9166686400000000    0.0266319200000000 N
   0.0848932600000000    0.2500003900000000    0.5016671600000000 N
   0.2499987300000000    0.0833348800000000    0.4983603500000000 N
   0.0847594800000000    0.0833306900000000    0.6400351100000000 N
   0.2499999700000000    0.2500037900000000    0.3598472100000000 N
   0.4151104100000000    0.2500003700000000    0.5016671500000000 N
   0.5848982800000000    0.0833346600000000    0.4983325300000000 N
   0.4152408300000000    0.0833307000000000    0.6400350299999999 N
   0.5847598899999999    0.2500045600000000    0.3599639200000000 N
   0.7500033000000000    0.2500002400000000    0.5016392200000001 N
   0.9150993700000000    0.0833347200000000    0.4983325800000000 N
   0.7499998800000000    0.0833313200000000    0.6401521900000000 N
   0.9152403300000000    0.2500044800000000    0.3599639400000000 N
   0.0848921800000000    0.5833323500000001    0.5016663000000000 N
   0.2499981700000000    0.4166647000000000    0.4983615800000000 N
   0.0847595300000000    0.4166656400000000    0.6400356200000000 N
   0.2500000800000000    0.5833378700000000    0.3598474900000000 N
   0.4151066300000000    0.5833322500000000    0.5016664199999999 N
   0.5849081800000000    0.4166647000000000    0.4983336600000000 N
   0.4152409100000000    0.4166656300000000    0.6400354800000000 N
   0.5847600300000000    0.5833385700000000    0.3599640000000000 N
   0.7500049800000000    0.5833323100000000    0.5016385000000000 N
   0.9151057600000000    0.4166646200000000    0.4983337900000000 N
   0.7499997900000001    0.4166658600000000    0.6401526600000000 N
   0.9152404100000000    0.5833386200000000    0.3599642000000000 N
   0.0848883400000000    0.9166689099999999    0.5016650800000000 N
   0.2499982100000000    0.7499993600000000    0.4983628700000000 N
   0.0847595000000000    0.7499991300000000    0.6400354500000000 N
   0.2499999700000000    0.9166683900000000    0.3598469500000000 N
   0.4151050200000000    0.9166689600000000    0.5016651000000000 N
   0.5848948300000000    0.7499992900000000    0.4983351700000000 N
   0.4152408400000000    0.7499991000000000    0.6400353000000000 N
   0.5847598800000000    0.9166686100000000    0.3599636400000000 N
   0.7500024199999999    0.9166689000000000    0.5016374700000000 N
   0.9150982400000000    0.7499992800000000    0.4983352500000000 N
   0.7499998600000000    0.7499992100000000    0.6401524700000000 N
   0.9152403000000000    0.9166686300000000    0.3599636800000000 N
   0.0848913800000000    0.2500003000000000    0.8350006000000000 N
   0.2500011600000000    0.0833349300000000    0.8316937599999999 N
   0.0847596600000000    0.0833307100000000    0.9733702800000000 N
   0.2499998700000000    0.2500037900000000    0.6931804800000000 N
   0.4151069900000000    0.2500003900000000    0.8350005500000000 N
   0.5849014500000000    0.0833347200000000    0.8316659000000000 N
   0.4152406100000000    0.0833307100000000    0.9733702800000000 N
   0.5847600400000000    0.2500045400000000    0.6932971500000000 N
   0.7500026500000000    0.2500002800000000    0.8349726600000000 N
   0.9150987800000000    0.0833347600000000    0.8316659500000000 N
   0.7499998800000000    0.0833313200000000    0.9734872000000000 N
   0.9152404500000000    0.2500045000000000    0.6932972600000000 N
   0.0848939500000000    0.5833323200000000    0.8349997800000000 N
   0.2499959400000000    0.4166646500000000    0.8316948000000000 N
   0.0847593900000000    0.4166656700000000    0.9733705000000000 N
   0.2499998900000000    0.5833379000000000    0.6931806200000000 N
   0.4151078700000000    0.5833322700000000    0.8349996700000000 N
   0.5849038000000000    0.4166645800000000    0.8316671200000000 N
   0.4152403500000000    0.4166656700000000    0.9733709600000000 N
   0.5847600500000000    0.5833385500000000    0.6932973900000000 N
   0.7500039400000000    0.5833322700000000    0.8349719900000000 N
   0.9151032600000000    0.4166645500000000    0.8316671700000000 N
   0.7499997700000000    0.4166658600000000    0.9734876200000000 N
   0.9152403900000000    0.5833385700000000    0.6932974500000000 N
   0.0848915600000000    0.9166690600000000    0.8349985000000000 N
   0.2499984800000000    0.7499993300000000    0.8316961700000000 N
   0.0847594500000000    0.7499991300000000    0.9733704200000000 N
   0.2499998800000000    0.9166684000000000    0.6931800700000000 N
   0.4151108300000000    0.9166690100000000    0.8349984100000000 N
   0.5848977100000000    0.7499991900000000    0.8316685700000001 N
   0.4152405300000000    0.7499990800000000    0.9733706100000000 N
   0.5847599200000000    0.9166686400000000    0.6932969700000000 N
   0.7500026900000000    0.9166689200000000    0.8349708900000000 N
   0.9151053600000000    0.7499991600000000    0.8316685900000000 N
   0.7499998700000000    0.7499992200000000    0.9734876200000000 N
   0.9152403700000000    0.9166686300000000    0.6932969600000000 N
   0.0849672000000000    0.2500052300000000    0.2560563900000000 O
   0.2500094500000000    0.0833173600000000    0.0772629300000000 O
   0.0848988600000000    0.1860266300000000    0.1276687300000000 O
   0.0848984500000000    0.3139722300000000    0.1276679200000000 O
   0.2499980100000000    0.0193880600000000    0.2056738900000000 O
   0.2499976100000000    0.1472805200000000    0.2056800300000000 O
   0.4150303300000000    0.2500019900000000    0.2560566500000000 O
   0.5849501400000000    0.0833168500000000    0.0772769300000000 O
   0.4151077600000000    0.1860264400000000    0.1276686000000000 O
   0.4151073000000000    0.3139722600000000    0.1276686200000000 O
   0.5849013400000000    0.0193616500000000    0.2056623400000000 O
   0.5849012300000000    0.1473073000000000    0.2056678500000000 O
   0.7499961500000000    0.2500035300000000    0.2560703200000000 O
   0.9150475600000000    0.0833182600000000    0.0772769800000000 O
   0.7499986100000000    0.1860533100000000    0.1276565300000000 O
   0.7499984300000000    0.3139457700000000    0.1276564800000000 O
   0.9151014400000000    0.0193614800000000    0.2056620300000000 O
   0.9151013900000000    0.1473073900000000    0.2056674900000000 O
   0.0849610800000000    0.5833430900000000    0.2560564200000000 O
   0.2499758900000000    0.4166598800000000    0.0772626200000000 O
   0.0849046100000000    0.5193602300000000    0.1276655200000000 O
   0.0849044900000000    0.6473057200000000    0.1276701700000000 O
   0.2500101100000000    0.3527217200000000    0.2056809600000000 O
   0.2500104900000000    0.4806142500000000    0.2056731800000000 O
   0.4150372300000000    0.5833441100000000    0.2560567100000000 O
   0.5849372600000000    0.4166563700000000    0.0772767600000000 O
   0.4150985300000000    0.5193601799999999    0.1276660500000000 O
   0.4150994300000000    0.6473059100000000    0.1276702900000000 O
   0.5849157800000000    0.3526951200000000    0.2056694900000000 O
   0.5849164700000000    0.4806404900000000    0.2056613200000000 O
   0.7500102800000000    0.5833449400000000    0.2560706400000000 O
   0.9150583799999999    0.4166580000000000    0.0772770700000000 O
   0.7499921100000000    0.5193866800000000    0.1276540700000000 O
   0.7499926700000000    0.6472791300000000    0.1276589300000000 O
   0.9150965000000000    0.3526949100000000    0.2056690700000000 O
   0.9150961500000000    0.4806406900000000    0.2056612800000000 O
   0.0849538200000000    0.9166679500000000    0.2560565200000000 O
   0.2499897100000000    0.7499877100000000    0.0772628500000000 O
   0.0849062800000000    0.8526936400000000    0.1276716200000000 O
   0.0849059300000000    0.9806390900000000    0.1276636400000000 O
   0.2500057900000000    0.6860548200000000    0.2056791200000000 O
   0.2500062900000000    0.8139473400000000    0.2056757700000000 O
   0.4150496200000000    0.9166708600000000    0.2560566200000000 O
   0.5849462400000000    0.7499862300000000    0.0772769200000000 O
   0.4150876700000000    0.8526935100000000    0.1276720500000000 O
   0.4150881600000000    0.9806391300000000    0.1276636700000000 O
   0.5848998200000000    0.6860281000000000    0.2056673300000000 O
   0.5849003100000000    0.8139736000000000    0.2056644700000000 O
   0.7499941200000000    0.9166650200000001    0.2560706000000000 O
   0.9150596200000000    0.7499841200000000    0.0772769600000000 O
   0.7500002200000000    0.8527200000000000    0.1276602400000000 O
   0.7499997500000000    0.9806124200000000    0.1276516800000000 O
   0.9150898300000000    0.6860280900000000    0.2056674300000000 O
   0.9150890800000000    0.8139736200000000    0.2056640400000000 O
   0.0849680700000000    0.2500041900000000    0.5893897900000000 O
   0.2500145600000000    0.0833167300000000    0.4105960200000000 O
   0.0848963700000000    0.1860264900000000    0.4610021600000000 O
   0.0848962200000000    0.3139723200000000    0.4610015100000000 O
   0.2499941900000000    0.0193882200000000    0.5390072200000000 O
   0.2499945300000000    0.1472805400000000    0.5390133300000000 O
   0.4150317900000000    0.2500026600000000    0.5893897299999999 O
   0.5849535300000001    0.0833176900000000    0.4106100400000000 O
   0.4151007400000000    0.1860265200000000    0.4610020700000000 O
   0.4151010300000000    0.3139723500000000    0.4610017500000000 O
   0.5848996200000000    0.0193614200000000    0.5389952600000000 O
   0.5848999600000000    0.1473073700000000    0.5390004800000000 O
   0.7500061700000000    0.2500038600000000    0.5894036400000000 O
   0.9150430800000000    0.0833181500000000    0.4106101700000000 O
   0.7499945400000000    0.1860532800000000    0.4609895100000000 O
   0.7499951400000000    0.3139456700000000    0.4609896300000000 O
   0.9151037200000000    0.0193614600000000    0.5389952099999999 O
   0.9151036800000000    0.1473074100000000    0.5390006100000000 O
   0.0849698100000000    0.5833436200000000    0.5893898700000000 O
   0.2500008000000000    0.4166604600000000    0.4105961600000000 O
   0.0848965100000000    0.5193601000000000    0.4609993000000000 O
   0.0848958900000000    0.6473059000000000    0.4610037600000000 O
   0.2500010500000000    0.3527216800000000    0.5390146800000000 O
   0.2500009100000000    0.4806141100000000    0.5390067600000000 O
   0.4150272400000000    0.5833445400000000    0.5893900500000000 O
   0.5849560100000000    0.4166553500000000    0.4106100300000000 O
   0.4151062200000000    0.5193599800000001    0.4609994800000000 O
   0.4151062600000000    0.6473058400000000    0.4610041000000000 O
   0.5848905500000000    0.3526948800000000    0.5390017400000000 O
   0.5848907000000000    0.4806408400000000    0.5389944200000000 O
   0.7500041500000000    0.5833442100000000    0.5894038300000000 O
   0.9150541500000000    0.4166569000000000    0.4106102200000000 O
   0.7499949700000000    0.5193868500000000    0.4609870300000000 O
   0.7499942400000000    0.6472791400000000    0.4609917000000000 O
   0.9150930700000000    0.3526949100000000    0.5390019900000000 O
   0.9150927800000001    0.4806408100000000    0.5389942900000000 O
   0.0849582600000000    0.9166689000000000    0.5893898600000000 O
   0.2500012300000000    0.7499879300000000    0.4105961100000000 O
   0.0849054300000000    0.8526934500000000    0.4610051900000000 O
   0.0849052700000000    0.9806392200000000    0.4609973500000000 O
   0.2500008900000000    0.6860549500000001    0.5390128100000000 O
   0.2500007200000000    0.8139472000000000    0.5390094900000000 O
   0.4150363800000000    0.9166704100000000    0.5893898800000000 O
   0.5849450400000000    0.7499851800000000    0.4106101000000000 O
   0.4151024500000000    0.8526935000000000    0.4610052700000000 O
   0.4151029600000000    0.9806392400000000    0.4609972100000000 O
   0.5849067800000000    0.6860280200000000    0.5390001400000000 O
   0.5849073400000000    0.8139737700000000    0.5389972500000000 O
   0.7500023000000000    0.9166653299999999    0.5894038900000000 O
   0.9150508500000000    0.7499834500000000    0.4106102100000000 O
   0.7499970500000001    0.8527200100000000    0.4609933400000000 O
   0.7499972000000000    0.9806123800000000    0.4609848800000000 O
   0.9151009800000000    0.6860279300000000    0.5390000600000000 O
   0.9151002300000000    0.8139737900000000    0.5389972000000000 O
   0.0849669100000000    0.2500039300000000    0.9227233600000000 O
   0.2500077300000000    0.0833164500000000    0.7439295000000000 O
   0.0848983100000000    0.1860264100000000    0.7943356600000000 O
   0.0848983700000000    0.3139723800000000    0.7943354600000000 O
   0.2499957500000000    0.0193881500000000    0.8723404800000000 O