Rb8 H112 C48 N16 Cl24 O96
1.0
  14.4527000000000001    0.0000000000000000    0.0000000000000009
  -0.0000000000000009   14.4527000000000001    0.0000000000000009
   0.0000000000000000    0.0000000000000000   14.4527000000000001
Rb H C N Cl O
8 112 48 16 24 96
direct
   0.5000000000000000    0.5000000000000000    0.0000000000000000 Rb
   0.0000000000000000    0.5000000000000000    0.5000000000000000 Rb
   0.5000000000000000    0.0000000000000000    0.5000000000000000 Rb
   0.0000000000000000    0.0000000000000000    0.0000000000000000 Rb
   0.5000000000000000    0.0000000000000000    0.0000000000000000 Rb
   0.0000000000000000    0.0000000000000000    0.5000000000000000 Rb
   0.5000000000000000    0.5000000000000000    0.5000000000000000 Rb
   0.0000000000000000    0.5000000000000000    0.0000000000000000 Rb
   0.6254000000000000    0.3192000000000000    0.3245000000000000 H
   0.8746000000000000    0.6808000000000001    0.8245000000000000 H
   0.3746000000000000    0.8191999999999999    0.1755000000000000 H
   0.1254000000000000    0.1808000000000000    0.6755000000000000 H
   0.3245000000000000    0.6254000000000000    0.3192000000000000 H
   0.8245000000000000    0.8746000000000000    0.6808000000000001 H
   0.1755000000000000    0.3746000000000000    0.8191999999999999 H
   0.6755000000000000    0.1254000000000000    0.1808000000000000 H
   0.3192000000000000    0.3245000000000000    0.6254000000000000 H
   0.6808000000000001    0.8245000000000000    0.8746000000000000 H
   0.8191999999999999    0.1755000000000000    0.3746000000000000 H
   0.1808000000000000    0.6755000000000000    0.1254000000000000 H
   0.3746000000000000    0.6808000000000001    0.6755000000000000 H
   0.1254000000000000    0.3192000000000000    0.1755000000000000 H
   0.6254000000000000    0.1808000000000000    0.8245000000000000 H
   0.8746000000000000    0.8191999999999999    0.3245000000000000 H
   0.6755000000000000    0.3746000000000000    0.6808000000000001 H
   0.1755000000000000    0.1254000000000000    0.3192000000000000 H
   0.8245000000000000    0.6254000000000000    0.1808000000000000 H
   0.3245000000000000    0.8746000000000000    0.8191999999999999 H
   0.6808000000000001    0.6755000000000000    0.3746000000000000 H
   0.3192000000000000    0.1755000000000000    0.1254000000000000 H
   0.1808000000000000    0.8245000000000000    0.6254000000000000 H
   0.8191999999999999    0.3245000000000000    0.8746000000000000 H
   0.6034999999999999    0.2766000000000000    0.2254000000000000 H
   0.8965000000000001    0.7234000000000000    0.7254000000000000 H
   0.3965000000000000    0.7766000000000000    0.2746000000000000 H
   0.1035000000000000    0.2234000000000000    0.7746000000000000 H
   0.2254000000000000    0.6034999999999999    0.2766000000000000 H
   0.7254000000000000    0.8965000000000001    0.7234000000000000 H
   0.2746000000000000    0.3965000000000000    0.7766000000000000 H
   0.7746000000000000    0.1035000000000000    0.2234000000000000 H
   0.2766000000000000    0.2254000000000000    0.6034999999999999 H
   0.7234000000000000    0.7254000000000000    0.8965000000000001 H
   0.7766000000000000    0.2746000000000000    0.3965000000000000 H
   0.2234000000000000    0.7746000000000000    0.1035000000000000 H
   0.3965000000000000    0.7234000000000000    0.7746000000000000 H
   0.1035000000000000    0.2766000000000000    0.2746000000000000 H
   0.6034999999999999    0.2234000000000000    0.7254000000000000 H
   0.8965000000000001    0.7766000000000000    0.2254000000000000 H
   0.7746000000000000    0.3965000000000000    0.7234000000000000 H
   0.2746000000000000    0.1035000000000000    0.2766000000000000 H
   0.7254000000000000    0.6034999999999999    0.2234000000000000 H
   0.2254000000000000    0.8965000000000001    0.7766000000000000 H
   0.7234000000000000    0.7746000000000000    0.3965000000000000 H
   0.2766000000000000    0.2746000000000000    0.1035000000000000 H
   0.2234000000000000    0.7254000000000000    0.6034999999999999 H
   0.7766000000000000    0.2254000000000000    0.8965000000000001 H
   0.6936000000000000    0.3893000000000000    0.1715000000000000 H
   0.8064000000000000    0.6107000000000000    0.6715000000000000 H
   0.3064000000000000    0.8893000000000000    0.3285000000000000 H
   0.1936000000000000    0.1107000000000000    0.8285000000000000 H
   0.1715000000000000    0.6936000000000000    0.3893000000000000 H
   0.6715000000000000    0.8064000000000000    0.6107000000000000 H
   0.3285000000000000    0.3064000000000000    0.8893000000000000 H
   0.8285000000000000    0.1936000000000000    0.1107000000000000 H
   0.3893000000000000    0.1715000000000000    0.6936000000000000 H
   0.6107000000000000    0.6715000000000000    0.8064000000000000 H
   0.8893000000000000    0.3285000000000000    0.3064000000000000 H
   0.1107000000000000    0.8285000000000000    0.1936000000000000 H
   0.3064000000000000    0.6107000000000000    0.8285000000000000 H
   0.1936000000000000    0.3893000000000000    0.3285000000000000 H
   0.6936000000000000    0.1107000000000000    0.6715000000000000 H
   0.8064000000000000    0.8893000000000000    0.1715000000000000 H
   0.8285000000000000    0.3064000000000000    0.6107000000000000 H
   0.3285000000000000    0.1936000000000000    0.3893000000000000 H
   0.6715000000000000    0.6936000000000000    0.1107000000000000 H
   0.1715000000000000    0.8064000000000000    0.8893000000000000 H
   0.6107000000000000    0.8285000000000000    0.3064000000000000 H
   0.3893000000000000    0.3285000000000000    0.1936000000000000 H
   0.1107000000000000    0.6715000000000000    0.6936000000000000 H
   0.8893000000000000    0.1715000000000000    0.8064000000000000 H
   0.7401000000000000    0.4064000000000000    0.2697000000000000 H
   0.7599000000000000    0.5936000000000000    0.7697000000000001 H
   0.2599000000000000    0.9064000000000000    0.2303000000000000 H
   0.2401000000000000    0.0936000000000000    0.7302999999999999 H
   0.2697000000000000    0.7401000000000000    0.4064000000000000 H
   0.7697000000000001    0.7599000000000000    0.5936000000000000 H
   0.2303000000000000    0.2599000000000000    0.9064000000000000 H
   0.7302999999999999    0.2401000000000000    0.0936000000000000 H
   0.4064000000000000    0.2697000000000000    0.7401000000000000 H
   0.5936000000000000    0.7697000000000001    0.7599000000000000 H
   0.9064000000000000    0.2303000000000000    0.2599000000000000 H
   0.0936000000000000    0.7302999999999999    0.2401000000000000 H
   0.2599000000000000    0.5936000000000000    0.7302999999999999 H
   0.2401000000000000    0.4064000000000000    0.2303000000000000 H
   0.7401000000000000    0.0936000000000000    0.7697000000000001 H
   0.7599000000000000    0.9064000000000000    0.2697000000000000 H
   0.7302999999999999    0.2599000000000000    0.5936000000000000 H
   0.2303000000000000    0.2401000000000000    0.4064000000000000 H
   0.7697000000000001    0.7401000000000000    0.0936000000000000 H
   0.2697000000000000    0.7599000000000000    0.9064000000000000 H
   0.5936000000000000    0.7302999999999999    0.2599000000000000 H
   0.4064000000000000    0.2303000000000000    0.2401000000000000 H
   0.0936000000000000    0.7697000000000001    0.7401000000000000 H
   0.9064000000000000    0.2697000000000000    0.7599000000000000 H
   0.6657999999999999    0.1658000000000000    0.3342000000000000 H
   0.8342000000000001    0.8342000000000001    0.8342000000000001 H
   0.3342000000000000    0.6657999999999999    0.1658000000000000 H
   0.1658000000000000    0.3342000000000000    0.6657999999999999 H
   0.3342000000000000    0.8342000000000001    0.6657999999999999 H
   0.1658000000000000    0.1658000000000000    0.1658000000000000 H
   0.6657999999999999    0.3342000000000000    0.8342000000000001 H
   0.8342000000000001    0.6657999999999999    0.3342000000000000 H
   0.8445000000000000    0.3445000000000000    0.1555000000000000 H
   0.6555000000000000    0.6555000000000000    0.6555000000000000 H
   0.1555000000000000    0.8445000000000000    0.3445000000000000 H
   0.3445000000000000    0.1555000000000000    0.8445000000000000 H
   0.1555000000000000    0.6555000000000000    0.8445000000000000 H
   0.3445000000000000    0.3445000000000000    0.3445000000000000 H
   0.8445000000000000    0.1555000000000000    0.6555000000000000 H
   0.6555000000000000    0.8445000000000000    0.1555000000000000 H
   0.6531199999999999    0.2914200000000000    0.2691800000000000 C
   0.8468800000000001    0.7085800000000000    0.7691800000000000 C
   0.3468800000000000    0.7914200000000000    0.2308200000000000 C
   0.1531200000000000    0.2085800000000000    0.7308200000000000 C
   0.2691800000000000    0.6531199999999999    0.2914200000000000 C
   0.7691800000000000    0.8468800000000001    0.7085800000000000 C
   0.2308200000000000    0.3468800000000000    0.7914200000000000 C
   0.7308200000000000    0.1531200000000000    0.2085800000000000 C
   0.2914200000000000    0.2691800000000000    0.6531199999999999 C
   0.7085800000000000    0.7691800000000000    0.8468800000000001 C
   0.7914200000000000    0.2308200000000000    0.3468800000000000 C
   0.2085800000000000    0.7308200000000000    0.1531200000000000 C
   0.3468800000000000    0.7085800000000000    0.7308200000000000 C
   0.1531200000000000    0.2914200000000000    0.2308200000000000 C
   0.6531199999999999    0.2085800000000000    0.7691800000000000 C
   0.8468800000000001    0.7914200000000000    0.2691800000000000 C
   0.7308200000000000    0.3468800000000000    0.7085800000000000 C
   0.2308200000000000    0.1531200000000000    0.2914200000000000 C
   0.7691800000000000    0.6531199999999999    0.2085800000000000 C
   0.2691800000000000    0.8468800000000001    0.7914200000000000 C
   0.7085800000000000    0.7308200000000000    0.3468800000000000 C
   0.2914200000000000    0.2308200000000000    0.1531200000000000 C
   0.2085800000000000    0.7691800000000000    0.6531199999999999 C
   0.7914200000000000    0.2691800000000000    0.8468800000000001 C
   0.7220100000000000    0.3587700000000000    0.2249300000000000 C
   0.7779900000000000    0.6412300000000000    0.7249300000000000 C
   0.2779900000000000    0.8587700000000000    0.2750700000000000 C
   0.2220100000000000    0.1412300000000000    0.7750700000000000 C
   0.2249300000000000    0.7220100000000000    0.3587700000000000 C
   0.7249300000000000    0.7779900000000000    0.6412300000000000 C
   0.2750700000000000    0.2779900000000000    0.8587700000000000 C
   0.7750700000000000    0.2220100000000000    0.1412300000000000 C
   0.3587700000000000    0.2249300000000000    0.7220100000000000 C
   0.6412300000000000    0.7249300000000000    0.7779900000000000 C
   0.8587700000000000    0.2750700000000000    0.2779900000000000 C
   0.1412300000000000    0.7750700000000000    0.2220100000000000 C
   0.2779900000000000    0.6412300000000000    0.7750700000000000 C
   0.2220100000000000    0.3587700000000000    0.2750700000000000 C
   0.7220100000000000    0.1412300000000000    0.7249300000000000 C
   0.7779900000000000    0.8587700000000000    0.2249300000000000 C
   0.7750700000000000    0.2779900000000000    0.6412300000000000 C
   0.2750700000000000    0.2220100000000000    0.3587700000000000 C
   0.7249300000000000    0.7220100000000000    0.1412300000000000 C
   0.2249300000000000    0.7779900000000000    0.8587700000000000 C
   0.6412300000000000    0.7750700000000000    0.2779900000000000 C
   0.3587700000000000    0.2750700000000000    0.2220100000000000 C
   0.1412300000000000    0.7249300000000000    0.7220100000000000 C
   0.8587700000000000    0.2249300000000000    0.7779900000000000 C
   0.7053600000000000    0.2053600000000000    0.2946400000000000 N
   0.7946400000000000    0.7946400000000000    0.7946400000000000 N
   0.2946400000000000    0.7053600000000000    0.2053600000000000 N
   0.2053600000000000    0.2946400000000000    0.7053600000000000 N
   0.2946400000000000    0.7946400000000000    0.7053600000000000 N
   0.2053600000000000    0.2053600000000000    0.2053600000000000 N
   0.7053600000000000    0.2946400000000000    0.7946400000000000 N
   0.7946400000000000    0.7053600000000000    0.2946400000000000 N
   0.8049500000000001    0.3049500000000000    0.1950500000000000 N
   0.6950499999999999    0.6950499999999999    0.6950499999999999 N
   0.1950500000000000    0.8049500000000001    0.3049500000000000 N
   0.3049500000000000    0.1950500000000000    0.8049500000000001 N
   0.1950500000000000    0.6950499999999999    0.8049500000000001 N
   0.3049500000000000    0.3049500000000000    0.3049500000000000 N
   0.8049500000000001    0.1950500000000000    0.6950499999999999 N
   0.6950499999999999    0.8049500000000001    0.1950500000000000 N
   0.5100600000000000    0.2491200000000000    0.0000000000000000 Cl
   0.9899400000000000    0.7508800000000000    0.5000000000000000 Cl
   0.4899400000000000    0.7491200000000000    0.5000000000000000 Cl
   0.0100600000000000    0.2508800000000000    0.0000000000000000 Cl
   0.0000000000000000    0.5100600000000000    0.2491200000000000 Cl
   0.5000000000000000    0.9899400000000000    0.7508800000000000 Cl
   0.5000000000000000    0.4899400000000000    0.7491200000000000 Cl
   0.0000000000000000    0.0100600000000000    0.2508800000000000 Cl
   0.2491200000000000    0.0000000000000000    0.5100600000000000 Cl
   0.7508800000000000    0.5000000000000000    0.9899400000000000 Cl
   0.7491200000000000    0.5000000000000000    0.4899400000000000 Cl
   0.2508800000000000    0.0000000000000000    0.0100600000000000 Cl
   0.4899400000000000    0.7508800000000000    0.0000000000000000 Cl
   0.0100600000000000    0.2491200000000000    0.5000000000000000 Cl
   0.5100600000000000    0.2508800000000000    0.5000000000000000 Cl
   0.9899400000000000    0.7491200000000000    0.0000000000000000 Cl
   0.0000000000000000    0.4899400000000000    0.7508800000000000 Cl
   0.5000000000000000    0.0100600000000000    0.2491200000000000 Cl
   0.5000000000000000    0.5100600000000000    0.2508800000000000 Cl
   0.0000000000000000    0.9899400000000000    0.7491200000000000 Cl
   0.7508800000000000    0.0000000000000000    0.4899400000000000 Cl
   0.2491200000000000    0.5000000000000000    0.0100600000000000 Cl
   0.2508800000000000    0.5000000000000000    0.5100600000000000 Cl
   0.7491200000000000    0.0000000000000000    0.9899400000000000 Cl
   0.5933400000000000    0.3008300000000000    0.9798800000000000 O
   0.9066600000000000    0.6991700000000001    0.4798800000000000 O
   0.4066600000000000    0.8008299999999999    0.5201200000000000 O
   0.0933400000000000    0.1991700000000000    0.0201200000000000 O
   0.9798800000000000    0.5933400000000000    0.3008300000000000 O
   0.4798800000000000    0.9066600000000000    0.6991700000000001 O
   0.5201200000000000    0.4066600000000000    0.8008299999999999 O
   0.0201200000000000    0.0933400000000000    0.1991700000000000 O
   0.3008300000000000    0.9798800000000000    0.5933400000000000 O
   0.6991700000000001    0.4798800000000000    0.9066600000000000 O
   0.8008299999999999    0.5201200000000000    0.4066600000000000 O
   0.1991700000000000    0.0201200000000000    0.0933400000000000 O
   0.4066600000000000    0.6991700000000001    0.0201200000000000 O
   0.0933400000000000    0.3008300000000000    0.5201200000000000 O
   0.5933400000000000    0.1991700000000000    0.4798800000000000 O
   0.9066600000000000    0.8008299999999999    0.9798800000000000 O
   0.0201200000000000    0.4066600000000000    0.6991700000000001 O
   0.5201200000000000    0.0933400000000000    0.3008300000000000 O
   0.4798800000000000    0.5933400000000000    0.1991700000000000 O
   0.9798800000000000    0.9066600000000000    0.8008299999999999 O
   0.6991700000000001    0.0201200000000000    0.4066600000000000 O
   0.3008300000000000    0.5201200000000000    0.0933400000000000 O
   0.1991700000000000    0.4798800000000000    0.5933400000000000 O
   0.8008299999999999    0.9798800000000000    0.9066600000000000 O
   0.4353100000000000    0.3120400000000000    0.0172100000000000 O
   0.0646900000000001    0.6879600000000000    0.5172099999999999 O
   0.5646900000000000    0.8120400000000000    0.4827900000000000 O
   0.9353100000000000    0.1879600000000000    0.9827900000000001 O
   0.0172100000000000    0.4353100000000000    0.3120400000000000 O
   0.5172099999999999    0.0646900000000001    0.6879600000000000 O
   0.4827900000000000    0.5646900000000000    0.8120400000000000 O
   0.9827900000000001    0.9353100000000000    0.1879600000000000 O
   0.3120400000000000    0.0172100000000000    0.4353100000000000 O
   0.6879600000000000    0.5172099999999999    0.0646900000000001 O
   0.8120400000000000    0.4827900000000000    0.5646900000000000 O
   0.1879600000000000    0.9827900000000001    0.9353100000000000 O
   0.5646900000000000    0.6879600000000000    0.9827900000000001 O
   0.9353100000000000    0.3120400000000000    0.4827900000000000 O
   0.4353100000000000    0.1879600000000000    0.5172099999999999 O
   0.0646900000000001    0.8120400000000000    0.0172100000000000 O
   0.9827900000000001    0.5646900000000000    0.6879600000000000 O
   0.4827900000000000    0.9353100000000000    0.3120400000000000 O
   0.5172099999999999    0.4353100000000000    0.1879600000000000 O
   0.0172100000000000    0.0646900000000001    0.8120400000000000 O
   0.6879600000000000    0.9827900000000001    0.5646900000000000 O
   0.3120400000000000    0.4827900000000000    0.9353100000000000 O
   0.1879600000000000    0.5172099999999999    0.4353100000000000 O
   0.8120400000000000    0.0172100000000000    0.0646900000000001 O
   0.5249200000000001    0.1919400000000000    0.0802600000000000 O
   0.9750799999999999    0.8080600000000000    0.5802600000000000 O
   0.4750800000000000    0.6919400000000000    0.4197400000000000 O
   0.0249200000000000    0.3080600000000000    0.9197400000000000 O
   0.0802600000000000    0.5249200000000001    0.1919400000000000 O
   0.5802600000000000    0.9750799999999999    0.8080600000000000 O
   0.4197400000000000    0.4750800000000000    0.6919400000000000 O
   0.9197400000000000    0.0249200000000000    0.3080600000000000 O
   0.1919400000000000    0.0802600000000000    0.5249200000000001 O
   0.8080600000000000    0.5802600000000000    0.9750799999999999 O
   0.6919400000000000    0.4197400000000000    0.4750800000000000 O
   0.3080600000000000    0.9197400000000000    0.0249200000000000 O
   0.4750800000000000    0.8080600000000000    0.9197400000000000 O
   0.0249200000000000    0.1919400000000000    0.4197400000000000 O
   0.5249200000000001    0.3080600000000000    0.5802600000000000 O
   0.9750799999999999    0.6919400000000000    0.0802600000000000 O
   0.9197400000000000    0.4750800000000000    0.8080600000000000 O
   0.4197400000000000    0.0249200000000000    0.1919400000000000 O
   0.5802600000000000    0.5249200000000001    0.3080600000000000 O
   0.0802600000000000    0.9750799999999999    0.6919400000000000 O
   0.8080600000000000    0.9197400000000000    0.4750800000000000 O
   0.1919400000000000    0.4197400000000000    0.0249200000000000 O
   0.3080600000000000    0.5802600000000000    0.5249200000000001 O
   0.6919400000000000    0.0802600000000000    0.9750799999999999 O
   0.4873900000000000    0.1915300000000000    0.9216200000000000 O
   0.0126100000000000    0.8084700000000000    0.4216200000000000 O
   0.5126100000000000    0.6915300000000000    0.5783800000000000 O
   0.9873900000000000    0.3084700000000000    0.0783800000000000 O
   0.9216200000000000    0.4873900000000000    0.1915300000000000 O
   0.4216200000000000    0.0126100000000000    0.8084700000000000 O
   0.5783800000000000    0.5126100000000000    0.6915300000000000 O
   0.0783800000000000    0.9873900000000000    0.3084700000000000 O
   0.1915300000000000    0.9216200000000000    0.4873900000000000 O
   0.8084700000000000    0.4216200000000000    0.0126100000000000 O
   0.6915300000000000    0.5783800000000000    0.5126100000000000 O
   0.3084700000000000    0.0783800000000000    0.9873900000000000 O
   0.5126100000000000    0.8084700000000000    0.0783800000000000 O
   0.9873900000000000    0.1915300000000000    0.5783800000000000 O
   0.4873900000000000    0.3084700000000000    0.4216200000000000 O
   0.0126100000000000    0.6915300000000000    0.9216200000000000 O
   0.0783800000000000    0.5126100000000000    0.8084700000000000 O
   0.5783800000000000    0.9873900000000000    0.1915300000000000 O
   0.4216200000000000    0.4873900000000000    0.3084700000000000 O
   0.9216200000000000    0.0126100000000000    0.6915300000000000 O
   0.8084700000000000    0.0783800000000000    0.5126100000000000 O
   0.1915300000000000    0.5783800000000000    0.9873900000000000 O
   0.3084700000000000    0.4216200000000000    0.4873900000000000 O
   0.6915300000000000    0.9216200000000000    0.0126100000000000 O
