Tl32 N96
1.0
  12.4160000000000004    0.0000000000000000    0.0000000000000008
  -0.0000000000000008   12.4160000000000004    0.0000000000000008
   0.0000000000000000    0.0000000000000000   14.7100000000000009
Tl N
32 96
direct
   0.0000000000000000    0.0000000000000000    0.1250000000000000 Tl
   0.2500000000000000    0.2500000000000000    0.3750000000000000 Tl
   0.0000000000000000    0.0000000000000000    0.3750000000000000 Tl
   0.2500000000000000    0.2500000000000000    0.1250000000000000 Tl
   0.5000000000000000    0.0000000000000000    0.1250000000000000 Tl
   0.7500000000000000    0.2500000000000000    0.3750000000000000 Tl
   0.5000000000000000    0.0000000000000000    0.3750000000000000 Tl
   0.7500000000000000    0.2500000000000000    0.1250000000000000 Tl
   0.0000000000000000    0.5000000000000000    0.1250000000000000 Tl
   0.2500000000000000    0.7500000000000000    0.3750000000000000 Tl
   0.0000000000000000    0.5000000000000000    0.3750000000000000 Tl
   0.2500000000000000    0.7500000000000000    0.1250000000000000 Tl
   0.5000000000000000    0.5000000000000000    0.1250000000000000 Tl
   0.7500000000000000    0.7500000000000000    0.3750000000000000 Tl
   0.5000000000000000    0.5000000000000000    0.3750000000000000 Tl
   0.7500000000000000    0.7500000000000000    0.1250000000000000 Tl
   0.0000000000000000    0.0000000000000000    0.6250000000000000 Tl
   0.2500000000000000    0.2500000000000000    0.8750000000000000 Tl
   0.0000000000000000    0.0000000000000000    0.8750000000000000 Tl
   0.2500000000000000    0.2500000000000000    0.6250000000000000 Tl
   0.5000000000000000    0.0000000000000000    0.6250000000000000 Tl
   0.7500000000000000    0.2500000000000000    0.8750000000000000 Tl
   0.5000000000000000    0.0000000000000000    0.8750000000000000 Tl
   0.7500000000000000    0.2500000000000000    0.6250000000000000 Tl
   0.0000000000000000    0.5000000000000000    0.6250000000000000 Tl
   0.2500000000000000    0.7500000000000000    0.8750000000000000 Tl
   0.0000000000000000    0.5000000000000000    0.8750000000000000 Tl
   0.2500000000000000    0.7500000000000000    0.6250000000000000 Tl
   0.5000000000000000    0.5000000000000000    0.6250000000000000 Tl
   0.7500000000000000    0.7500000000000000    0.8750000000000000 Tl
   0.5000000000000000    0.5000000000000000    0.8750000000000000 Tl
   0.7500000000000000    0.7500000000000000    0.6250000000000000 Tl
   0.1840000000000000    0.0660000000000000    0.0000000000000000 N
   0.3160000000000000    0.9339999999999999    0.0000000000000000 N
   0.0660000000000000    0.1840000000000000    0.2500000000000000 N
   0.9339999999999999    0.1840000000000000    0.0000000000000000 N
   0.0660000000000000    0.3160000000000000    0.0000000000000000 N
   0.3160000000000000    0.0660000000000000    0.2500000000000000 N
   0.1840000000000000    0.9339999999999999    0.2500000000000000 N
   0.9339999999999999    0.3160000000000000    0.2500000000000000 N
   0.2500000000000000    0.0000000000000000    0.0000000000000000 N
   0.0000000000000000    0.2500000000000000    0.2500000000000000 N
   0.0000000000000000    0.2500000000000000    0.0000000000000000 N
   0.2500000000000000    0.0000000000000000    0.2500000000000000 N
   0.6840000000000001    0.0660000000000000    0.0000000000000000 N
   0.8159999999999999    0.9339999999999999    0.0000000000000000 N
   0.5659999999999999    0.1840000000000000    0.2500000000000000 N
   0.4340000000000000    0.1840000000000000    0.0000000000000000 N
   0.5659999999999999    0.3160000000000000    0.0000000000000000 N
   0.8159999999999999    0.0660000000000000    0.2500000000000000 N
   0.6840000000000001    0.9339999999999999    0.2500000000000000 N
   0.4340000000000000    0.3160000000000000    0.2500000000000000 N
   0.7500000000000000    0.0000000000000000    0.0000000000000000 N
   0.5000000000000000    0.2500000000000000    0.2500000000000000 N
   0.5000000000000000    0.2500000000000000    0.0000000000000000 N
   0.7500000000000000    0.0000000000000000    0.2500000000000000 N
   0.1840000000000000    0.5659999999999999    0.0000000000000000 N
   0.3160000000000000    0.4340000000000000    0.0000000000000000 N
   0.0660000000000000    0.6840000000000001    0.2500000000000000 N
   0.9339999999999999    0.6840000000000001    0.0000000000000000 N
   0.0660000000000000    0.8159999999999999    0.0000000000000000 N
   0.3160000000000000    0.5659999999999999    0.2500000000000000 N
   0.1840000000000000    0.4340000000000000    0.2500000000000000 N
   0.9339999999999999    0.8159999999999999    0.2500000000000000 N
   0.2500000000000000    0.5000000000000000    0.0000000000000000 N
   0.0000000000000000    0.7500000000000000    0.2500000000000000 N
   0.0000000000000000    0.7500000000000000    0.0000000000000000 N
   0.2500000000000000    0.5000000000000000    0.2500000000000000 N
   0.6840000000000001    0.5659999999999999    0.0000000000000000 N
   0.8159999999999999    0.4340000000000000    0.0000000000000000 N
   0.5659999999999999    0.6840000000000001    0.2500000000000000 N
   0.4340000000000000    0.6840000000000001    0.0000000000000000 N
   0.5659999999999999    0.8159999999999999    0.0000000000000000 N
   0.8159999999999999    0.5659999999999999    0.2500000000000000 N
   0.6840000000000001    0.4340000000000000    0.2500000000000000 N
   0.4340000000000000    0.8159999999999999    0.2500000000000000 N
   0.7500000000000000    0.5000000000000000    0.0000000000000000 N
   0.5000000000000000    0.7500000000000000    0.2500000000000000 N
   0.5000000000000000    0.7500000000000000    0.0000000000000000 N
   0.7500000000000000    0.5000000000000000    0.2500000000000000 N
   0.1840000000000000    0.0660000000000000    0.5000000000000000 N
   0.3160000000000000    0.9339999999999999    0.5000000000000000 N
   0.0660000000000000    0.1840000000000000    0.7500000000000000 N
   0.9339999999999999    0.1840000000000000    0.5000000000000000 N
   0.0660000000000000    0.3160000000000000    0.5000000000000000 N
   0.3160000000000000    0.0660000000000000    0.7500000000000000 N
   0.1840000000000000    0.9339999999999999    0.7500000000000000 N
   0.9339999999999999    0.3160000000000000    0.7500000000000000 N
   0.2500000000000000    0.0000000000000000    0.5000000000000000 N
   0.0000000000000000    0.2500000000000000    0.7500000000000000 N
   0.0000000000000000    0.2500000000000000    0.5000000000000000 N
   0.2500000000000000    0.0000000000000000    0.7500000000000000 N
   0.6840000000000001    0.0660000000000000    0.5000000000000000 N
   0.8159999999999999    0.9339999999999999    0.5000000000000000 N
   0.5659999999999999    0.1840000000000000    0.7500000000000000 N
   0.4340000000000000    0.1840000000000000    0.5000000000000000 N
   0.5659999999999999    0.3160000000000000    0.5000000000000000 N
   0.8159999999999999    0.0660000000000000    0.7500000000000000 N
   0.6840000000000001    0.9339999999999999    0.7500000000000000 N
   0.4340000000000000    0.3160000000000000    0.7500000000000000 N
   0.7500000000000000    0.0000000000000000    0.5000000000000000 N
   0.5000000000000000    0.2500000000000000    0.7500000000000000 N
   0.5000000000000000    0.2500000000000000    0.5000000000000000 N
   0.7500000000000000    0.0000000000000000    0.7500000000000000 N
   0.1840000000000000    0.5659999999999999    0.5000000000000000 N
   0.3160000000000000    0.4340000000000000    0.5000000000000000 N
   0.0660000000000000    0.6840000000000001    0.7500000000000000 N
   0.9339999999999999    0.6840000000000001    0.5000000000000000 N
   0.0660000000000000    0.8159999999999999    0.5000000000000000 N
   0.3160000000000000    0.5659999999999999    0.7500000000000000 N
   0.1840000000000000    0.4340000000000000    0.7500000000000000 N
   0.9339999999999999    0.8159999999999999    0.7500000000000000 N
   0.2500000000000000    0.5000000000000000    0.5000000000000000 N
   0.0000000000000000    0.7500000000000000    0.7500000000000000 N
   0.0000000000000000    0.7500000000000000    0.5000000000000000 N
   0.2500000000000000    0.5000000000000000    0.7500000000000000 N
   0.6840000000000001    0.5659999999999999    0.5000000000000000 N
   0.8159999999999999    0.4340000000000000    0.5000000000000000 N
   0.5659999999999999    0.6840000000000001    0.7500000000000000 N
   0.4340000000000000    0.6840000000000001    0.5000000000000000 N
   0.5659999999999999    0.8159999999999999    0.5000000000000000 N
   0.8159999999999999    0.5659999999999999    0.7500000000000000 N
   0.6840000000000001    0.4340000000000000    0.7500000000000000 N
   0.4340000000000000    0.8159999999999999    0.7500000000000000 N
   0.7500000000000000    0.5000000000000000    0.5000000000000000 N
   0.5000000000000000    0.7500000000000000    0.7500000000000000 N
   0.5000000000000000    0.7500000000000000    0.5000000000000000 N
   0.7500000000000000    0.5000000000000000    0.7500000000000000 N
