H80 C28 N12 Cl12 O48
1.0
  10.1519680262266014    0.0000000000000000    0.0254792949811733
  -0.0000000000000007   10.9824000000000002    0.0000000000000007
   0.0000000000000000    0.0000000000000000   14.7774000000000001
H C N Cl O
80 28 12 12 48
direct
   0.7980000000000000    0.5558999999999999    0.9910000000000000 H
   0.2020000000000000    0.0558999999999998    0.0090000000000000 H
   0.8183000000000000    0.4156000000000000    0.9813000000000000 H
   0.1817000000000000    0.9156000000000000    0.0187000000000000 H
   0.6745000000000000    0.4765000000000000    0.9510000000000000 H
   0.3255000000000000    0.9764999999999999    0.0490000000000000 H
   0.7028000000000000    0.4645000000000000    0.0515000000000000 H
   0.2972000000000000    0.9645000000000000    0.9485000000000000 H
   0.7503000000000000    0.5111000000000000    0.4300000000000000 H
   0.2497000000000000    0.0110999999999999    0.5700000000000001 H
   0.6743000000000000    0.4969000000000000    0.5229000000000000 H
   0.3257000000000000    0.9969000000000000    0.4771000000000000 H
   0.7581000000000000    0.6229000000000000    0.5016000000000000 H
   0.2419000000000000    0.1229000000000000    0.4984000000000000 H
   0.8365000000000000    0.5074000000000000    0.5244000000000000 H
   0.1635000000000000    0.0074000000000001    0.4756000000000000 H
   0.7452000000000000    0.7926000000000000    0.8530000000000000 H
   0.2548000000000000    0.2926000000000000    0.1470000000000000 H
   0.7608000000000000    0.2106000000000000    0.3516000000000000 H
   0.2392000000000000    0.7106000000000000    0.6484000000000000 H
   0.9122000000000000    0.0156000000000001    0.6756000000000000 H
   0.0878000000000000    0.5156000000000001    0.3244000000000000 H
   0.7914000000000000    0.9529000000000000    0.6260000000000000 H
   0.2086000000000000    0.4529000000000001    0.3740000000000000 H
   0.6962000000000000    0.2206000000000000    0.2025000000000000 H
   0.3038000000000000    0.7206000000000000    0.7975000000000000 H
   0.5812000000000000    0.1531000000000000    0.2558000000000000 H
   0.4188000000000000    0.6531000000000000    0.7442000000000000 H
   0.6284000000000000    0.0556000000000000    0.4041000000000000 H
   0.3716000000000000    0.5556000000000000    0.5959000000000000 H
   0.7761000000000000    0.0161000000000000    0.4241000000000000 H
   0.2239000000000000    0.5161000000000000    0.5759000000000001 H
   0.9517000000000000    0.9795000000000000    0.1894000000000000 H
   0.0483000000000000    0.4795000000000000    0.8106000000000000 H
   0.9443000000000000    0.9236000000000000    0.2884000000000000 H
   0.0557000000000000    0.4236000000000000    0.7116000000000000 H
   0.9605000000000000    0.1117000000000000    0.3370000000000000 H
   0.0395000000000000    0.6117000000000000    0.6630000000000000 H
   0.9271000000000000    0.1660000000000000    0.2400000000000000 H
   0.0729000000000000    0.6660000000000000    0.7600000000000000 H
   0.6058000000000000    0.0046000000000000    0.1568000000000000 H
   0.3942000000000000    0.5046000000000000    0.8431999999999999 H
   0.7431000000000000    0.0568000000000000    0.1227000000000000 H
   0.2569000000000000    0.5568000000000000    0.8773000000000000 H
   0.5407999999999999    0.8771000000000000    0.8262000000000000 H
   0.4592000000000001    0.3771000000000000    0.1738000000000000 H
   0.5919000000000000    0.8210000000000000    0.7335000000000000 H
   0.4081000000000000    0.3210000000000000    0.2665000000000000 H
   0.7309000000000000    0.8485000000000000    0.3485000000000000 H
   0.2691000000000000    0.3485000000000000    0.6515000000000000 H
   0.5998000000000000    0.9050000000000000    0.3078000000000000 H
   0.4002000000000000    0.4050000000000000    0.6921999999999999 H
   0.5618000000000000    0.0012000000000001    0.6736000000000000 H
   0.4382000000000000    0.5012000000000001    0.3264000000000000 H
   0.5395000000000000    0.0616000000000001    0.7701000000000000 H
   0.4605000000000000    0.5616000000000001    0.2299000000000000 H
   0.8539000000000000    0.9582000000000001    0.9111000000000000 H
   0.1461000000000000    0.4582000000000002    0.0889000000000000 H
   0.7006000000000000    0.9810000000000000    0.9245000000000000 H
   0.2994000000000000    0.4809999999999999    0.0755000000000000 H
   0.7274000000000000    0.1532000000000000    0.8524000000000000 H
   0.2726000000000000    0.6532000000000000    0.1476000000000000 H
   0.8728000000000000    0.1172000000000000    0.8228000000000000 H
   0.1272000000000000    0.6172000000000000    0.1772000000000000 H
   0.7968000000000000    0.8375000000000000    0.1154000000000000 H
   0.2032000000000000    0.3375000000000000    0.8846000000000001 H
   0.6749000000000001    0.7897000000000001    0.1724000000000000 H
   0.3250999999999999    0.2897000000000000    0.8276000000000000 H
   0.8202000000000000    0.7635000000000001    0.2060000000000000 H
   0.1798000000000000    0.2635000000000000    0.7940000000000000 H
   0.8299000000000000    0.7921000000000000    0.7083000000000000 H
   0.1701000000000000    0.2921000000000000    0.2917000000000000 H
   0.9302000000000000    0.8645000000000000    0.7706000000000000 H
   0.0698000000000000    0.3645000000000000    0.2294000000000000 H
   0.8119000000000000    0.2237000000000000    0.6833000000000000 H
   0.1881000000000000    0.7237000000000000    0.3167000000000000 H
   0.6583000000000000    0.2321000000000000    0.7012000000000000 H
   0.3417000000000000    0.7321000000000000    0.2988000000000000 H
   0.7119000000000000    0.1635000000000000    0.6143000000000000 H
   0.2881000000000000    0.6635000000000000    0.3857000000000000 H
   0.8262000000000000    0.9770000000000000    0.6850800000000000 C
   0.1738000000000000    0.4769999999999999    0.3149200000000000 C
   0.6733000000000000    0.1468000000000000    0.2362800000000000 C
   0.3267000000000000    0.6468000000000000    0.7637200000000000 C
   0.7123000000000000    0.0326000000000000    0.3759800000000000 C
   0.2877000000000000    0.5326000000000000    0.6240200000000000 C
   0.9014000000000000    0.9796000000000000    0.2461600000000000 C
   0.0986000000000000    0.4796000000000000    0.7538400000000001 C
   0.8996000000000000    0.1066000000000000    0.2857600000000000 C
   0.1004000000000000    0.6066000000000000    0.7142400000000000 C
   0.6918000000000000    0.0350000000000000    0.1765800000000000 C
   0.3082000000000000    0.5350000000000000    0.8234200000000000 C
   0.6077000000000000    0.8846000000000001    0.7786000000000000 C
   0.3923000000000000    0.3846000000000001    0.2214000000000000 C
   0.6939000000000000    0.9196000000000000    0.3176800000000000 C
   0.3061000000000000    0.4196000000000000    0.6823200000000000 C
   0.5983000000000001    0.0092000000000001    0.7346000000000000 C
   0.4016999999999999    0.5092000000000001    0.2654000000000000 C
   0.7708000000000000    0.9730000000000000    0.8792700000000000 C
   0.2292000000000000    0.4729999999999999    0.1207300000000000 C
   0.7811000000000000    0.0892999999999999    0.8243300000000000 C
   0.2189000000000000    0.5892999999999999    0.1756700000000000 C
   0.7635999999999999    0.8220000000000001    0.1760000000000000 C
   0.2364000000000001    0.3220000000000000    0.8240000000000001 C
   0.8416000000000000    0.8661000000000000    0.7445000000000001 C
   0.1584000000000000    0.3660999999999999    0.2554999999999999 C
   0.7285000000000000    0.1813000000000000    0.6776000000000000 C
   0.2715000000000000    0.6813000000000000    0.3224000000000000 C
   0.7497900000000000    0.4776000000000000    0.9934900000000000 N
   0.2502100000000000    0.9776000000000000    0.0065100000000000 N
   0.7537000000000000    0.5333000000000000    0.4948500000000000 N
   0.2463000000000000    0.0333000000000001    0.5051500000000000 N
   0.7417000000000000    0.8696000000000000    0.8182500000000000 N
   0.2583000000000000    0.3696000000000002    0.1817500000000000 N
   0.7621500000000000    0.9381400000000000    0.2285600000000000 N
   0.2378500000000000    0.4381400000000000    0.7714400000000000 N
   0.7336900000000000    0.0654699999999999    0.7296899999999999 N
   0.2663100000000000    0.5654699999999999    0.2703100000000001 N
   0.7612000000000000    0.1335000000000000    0.3167800000000000 N
   0.2388000000000000    0.6335000000000000    0.6832199999999999 N
   0.5062900000000000    0.2238200000000000    0.9986699999999999 Cl
   0.4937100000000000    0.7238200000000000    0.0013300000000000 Cl
   0.7814600000000000    0.4908800000000000    0.2469800000000000 Cl
   0.2185400000000000    0.9908800000000000    0.7530200000000000 Cl
   0.0051699999999999    0.7221500000000000    0.9803700000000000 Cl
   0.9948300000000001    0.2221500000000001    0.0196300000000000 Cl
   0.9990100000000000    0.7847499999999999    0.4915900000000000 Cl
   0.0009900000000000    0.2847499999999998    0.5084100000000000 Cl
   0.7240000000000000    0.5203300000000000    0.7452299999999999 Cl
   0.2760000000000000    0.0203300000000000    0.2547700000000001 Cl
   0.4951800000000000    0.2947000000000000    0.4868000000000000 Cl
   0.5048200000000000    0.7947000000000000    0.5132000000000000 Cl
   0.8827800000000000    0.5475000000000000    0.1931400000000000 O
   0.1172200000000000    0.0474999999999999    0.8068600000000000 O
   0.8635600000000000    0.7342000000000000    0.9759000000000000 O
   0.1364400000000000    0.2342000000000000    0.0241000000000000 O
   0.8388800000000000    0.3992000000000000    0.3044700000000000 O
   0.1611200000000000    0.8992000000000000    0.6955300000000000 O
   0.8106200000000000    0.4568000000000000    0.6842600000000000 O
   0.1893800000000000    0.9568000000000000    0.3157400000000000 O
   0.5480900000000000    0.3679000000000000    0.5587500000000000 O
   0.4519100000000000    0.8679000000000000    0.4412500000000000 O
   0.6869600000000000    0.4350000000000000    0.1875900000000000 O
   0.3130400000000000    0.9350000000000001    0.8124100000000000 O
   0.5731200000000000    0.3118000000000000    0.4062700000000000 O
   0.4268800000000000    0.8118000000000001    0.5937300000000000 O
   0.1356400000000000    0.7596000000000001    0.5097100000000000 O
   0.8643600000000000    0.2596000000000001    0.4902900000000000 O
   0.0378000000000001    0.5955000000000000    0.9808300000000000 O
   0.9621999999999999    0.0954999999999999    0.0191700000000000 O
   0.7158500000000000    0.5807000000000000    0.3022100000000000 O
   0.2841500000000000    0.0807000000000000    0.6977900000000000 O
   0.0637000000000001    0.7805000000000000    0.9030700000000000 O
   0.9362999999999999    0.2805000000000000    0.0969300000000000 O
   0.8008000000000000    0.5933000000000000    0.8071700000000001 O
   0.1992000000000000    0.0933000000000002    0.1928299999999999 O
   0.6394000000000000    0.5987000000000000    0.6934700000000000 O
   0.3606000000000000    0.0987000000000000    0.3065300000000000 O
   0.4653000000000000    0.1522000000000000    0.9224900000000000 O
   0.5347000000000000    0.6522000000000000    0.0775100000000000 O
   0.9195400000000000    0.7376000000000000    0.5642900000000000 O
   0.0804600000000000    0.2376000000000000    0.4357100000000000 O
   0.4725000000000000    0.3495000000000000    0.9852500000000000 O
   0.5275000000000001    0.8494999999999999    0.0147500000000000 O
   0.4415000000000000    0.1788000000000000    0.0785600000000000 O
   0.5585000000000000    0.6788000000000000    0.9214400000000000 O
   0.6466100000000000    0.2140000000000000    0.0098100000000000 O
   0.3533900000000000    0.7140000000000000    0.9901900000000000 O
   0.9600000000000000    0.7282000000000000    0.4082800000000000 O
   0.0400000000000000    0.2282000000000000    0.5917200000000000 O
   0.0523000000000000    0.7795000000000000    0.0614699999999999 O
   0.9477000000000000    0.2795000000000001    0.9385300000000001 O
   0.4991000000000000    0.1683000000000000    0.5130600000000000 O
   0.5009000000000000    0.6683000000000000    0.4869400000000000 O
   0.6464000000000000    0.4348000000000000    0.7959800000000000 O
   0.3536000000000000    0.9348000000000001    0.2040200000000000 O
   0.9808000000000000    0.9147000000000000    0.4859000000000000 O
   0.0192000000000000    0.4146999999999998    0.5141000000000000 O
   0.3616500000000000    0.3297000000000000    0.4698600000000000 O
   0.6383500000000000    0.8297000000000000    0.5301400000000001 O
