Hg32 N192
1.0
  21.1400000000000006    0.0000000000000000    0.0000000000000013
  -0.0000000000000008   12.4600000000000009    0.0000000000000008
   0.0000000000000000    0.0000000000000000   12.4600000000000009
Hg N
32 192
direct
   0.0159200000000000    0.1193800000000000    0.1250000000000000 Hg
   0.4840800000000000    0.3806100000000000    0.3750000000000000 Hg
   0.2659200000000000    0.3806100000000000    0.1250000000000000 Hg
   0.2340800000000000    0.1193800000000000    0.3750000000000000 Hg
   0.5159200000000000    0.1193800000000000    0.1250000000000000 Hg
   0.9840800000000000    0.3806100000000000    0.3750000000000000 Hg
   0.7659100000000000    0.3806100000000000    0.1250000000000000 Hg
   0.7340800000000000    0.1193800000000000    0.3750000000000000 Hg
   0.0159200000000000    0.6193800000000000    0.1250000000000000 Hg
   0.4840800000000000    0.8806100000000000    0.3750000000000000 Hg
   0.2659200000000000    0.8806100000000000    0.1250000000000000 Hg
   0.2340800000000000    0.6193800000000000    0.3750000000000000 Hg
   0.5159200000000000    0.6193800000000000    0.1250000000000000 Hg
   0.9840800000000000    0.8806100000000000    0.3750000000000000 Hg
   0.7659100000000000    0.8806100000000000    0.1250000000000000 Hg
   0.7340800000000000    0.6193800000000000    0.3750000000000000 Hg
   0.0159200000000000    0.1193800000000000    0.6250000000000000 Hg
   0.4840800000000000    0.3806100000000000    0.8750000000000000 Hg
   0.2659200000000000    0.3806100000000000    0.6250000000000000 Hg
   0.2340800000000000    0.1193800000000000    0.8750000000000000 Hg
   0.5159200000000000    0.1193800000000000    0.6250000000000000 Hg
   0.9840800000000000    0.3806100000000000    0.8750000000000000 Hg
   0.7659100000000000    0.3806100000000000    0.6250000000000000 Hg
   0.7340800000000000    0.1193800000000000    0.8750000000000000 Hg
   0.0159200000000000    0.6193800000000000    0.6250000000000000 Hg
   0.4840800000000000    0.8806100000000000    0.8750000000000000 Hg
   0.2659200000000000    0.8806100000000000    0.6250000000000000 Hg
   0.2340800000000000    0.6193800000000000    0.8750000000000000 Hg
   0.5159200000000000    0.6193800000000000    0.6250000000000000 Hg
   0.9840800000000000    0.8806100000000000    0.8750000000000000 Hg
   0.7659100000000000    0.8806100000000000    0.6250000000000000 Hg
   0.7340800000000000    0.6193800000000000    0.8750000000000000 Hg
   0.0410000000000000    0.9785000000000000    0.0530000000000000 N
   0.0940000000000000    0.9465000000000000    0.0605000000000000 N
   0.1420000000000000    0.9100000000000000    0.0560000000000000 N
   0.9810000000000000    0.2645000000000000    0.1950000000000000 N
   0.9415000000000000    0.3045000000000000    0.1400000000000000 N
   0.9035000000000000    0.3500000000000000    0.0860000000000000 N
   0.4590000000000000    0.5215000000000000    0.3030000000000000 N
   0.4060000000000000    0.5535000000000000    0.3105000000000000 N
   0.3580000000000000    0.5900000000000000    0.3060000000000000 N
   0.5190000000000000    0.2355000000000000    0.4450000000000000 N
   0.5585000000000000    0.1955000000000000    0.3900000000000000 N
   0.5965000000000000    0.1500000000000000    0.3360000000000000 N
   0.2910000000000000    0.5215000000000000    0.0530000000000000 N
   0.3440000000000000    0.5535000000000000    0.0605000000000000 N
   0.3920000000000000    0.5900000000000000    0.0560000000000000 N
   0.2310000000000000    0.2355000000000000    0.1950000000000000 N
   0.1915000000000000    0.1955000000000000    0.1400000000000000 N
   0.1535000000000000    0.1500000000000000    0.0860000000000000 N
   0.2090000000000000    0.9785000000000000    0.3030000000000000 N
   0.1560000000000000    0.9465000000000000    0.3105000000000000 N
   0.1080000000000000    0.9100000000000000    0.3060000000000000 N
   0.2690000000000000    0.2645000000000000    0.4450000000000000 N
   0.3085000000000000    0.3045000000000000    0.3900000000000000 N
   0.3465000000000000    0.3500000000000000    0.3360000000000000 N
   0.5410000000000000    0.9785000000000000    0.0530000000000000 N
   0.5940000000000000    0.9465000000000000    0.0605000000000000 N
   0.6420000000000000    0.9100000000000000    0.0560000000000000 N
   0.4810000000000000    0.2645000000000000    0.1950000000000000 N
   0.4415000000000000    0.3045000000000000    0.1400000000000000 N
   0.4035000000000000    0.3500000000000000    0.0860000000000000 N
   0.9590000000000000    0.5215000000000000    0.3030000000000000 N
   0.9060000000000000    0.5535000000000000    0.3105000000000000 N
   0.8580000000000000    0.5900000000000000    0.3060000000000000 N
   0.0189999999999999    0.2355000000000000    0.4450000000000000 N
   0.0585000000000000    0.1955000000000000    0.3900000000000000 N
   0.0965000000000000    0.1500000000000000    0.3360000000000000 N
   0.7910000000000000    0.5215000000000000    0.0530000000000000 N
   0.8440000000000000    0.5535000000000000    0.0605000000000000 N
   0.8920000000000000    0.5900000000000000    0.0560000000000000 N
   0.7310000000000000    0.2355000000000000    0.1950000000000000 N
   0.6915000000000000    0.1955000000000000    0.1400000000000000 N
   0.6535000000000000    0.1500000000000000    0.0860000000000000 N
   0.7090000000000000    0.9785000000000000    0.3030000000000000 N
   0.6560000000000000    0.9465000000000000    0.3105000000000000 N
   0.6080000000000000    0.9100000000000000    0.3060000000000000 N
   0.7690000000000000    0.2645000000000000    0.4450000000000000 N
   0.8085000000000000    0.3045000000000000    0.3900000000000000 N
   0.8465000000000000    0.3500000000000000    0.3360000000000000 N
   0.0410000000000000    0.4785000000000000    0.0530000000000000 N
   0.0940000000000000    0.4465000000000000    0.0605000000000000 N
   0.1420000000000000    0.4100000000000000    0.0560000000000000 N
   0.9810000000000000    0.7645000000000000    0.1950000000000000 N
   0.9415000000000000    0.8045000000000000    0.1400000000000000 N
   0.9035000000000000    0.8500000000000000    0.0860000000000000 N
   0.4590000000000000    0.0215000000000001    0.3030000000000000 N
   0.4060000000000000    0.0535000000000001    0.3105000000000000 N
   0.3580000000000000    0.0900000000000001    0.3060000000000000 N
   0.5190000000000000    0.7355000000000000    0.4450000000000000 N
   0.5585000000000000    0.6955000000000000    0.3900000000000000 N
   0.5965000000000000    0.6500000000000000    0.3360000000000000 N
   0.2910000000000000    0.0215000000000001    0.0530000000000000 N
   0.3440000000000000    0.0535000000000001    0.0605000000000000 N
   0.3920000000000000    0.0900000000000001    0.0560000000000000 N
   0.2310000000000000    0.7355000000000000    0.1950000000000000 N
   0.1915000000000000    0.6955000000000000    0.1400000000000000 N
   0.1535000000000000    0.6500000000000000    0.0860000000000000 N
   0.2090000000000000    0.4785000000000000    0.3030000000000000 N
   0.1560000000000000    0.4465000000000000    0.3105000000000000 N
   0.1080000000000000    0.4100000000000000    0.3060000000000000 N
   0.2690000000000000    0.7645000000000000    0.4450000000000000 N
   0.3085000000000000    0.8045000000000000    0.3900000000000000 N
   0.3465000000000000    0.8500000000000000    0.3360000000000000 N
   0.5410000000000000    0.4785000000000000    0.0530000000000000 N
   0.5940000000000000    0.4465000000000000    0.0605000000000000 N
   0.6420000000000000    0.4100000000000000    0.0560000000000000 N
   0.4810000000000000    0.7645000000000000    0.1950000000000000 N
   0.4415000000000000    0.8045000000000000    0.1400000000000000 N
   0.4035000000000000    0.8500000000000000    0.0860000000000000 N
   0.9590000000000000    0.0215000000000001    0.3030000000000000 N
   0.9060000000000000    0.0535000000000001    0.3105000000000000 N
   0.8580000000000000    0.0900000000000001    0.3060000000000000 N
   0.0189999999999999    0.7355000000000000    0.4450000000000000 N
   0.0585000000000000    0.6955000000000000    0.3900000000000000 N
   0.0965000000000000    0.6500000000000000    0.3360000000000000 N
   0.7910000000000000    0.0215000000000001    0.0530000000000000 N
   0.8440000000000000    0.0535000000000001    0.0605000000000000 N
   0.8920000000000000    0.0900000000000001    0.0560000000000000 N
   0.7310000000000000    0.7355000000000000    0.1950000000000000 N
   0.6915000000000000    0.6955000000000000    0.1400000000000000 N
   0.6535000000000000    0.6500000000000000    0.0860000000000000 N
   0.7090000000000000    0.4785000000000000    0.3030000000000000 N
   0.6560000000000000    0.4465000000000000    0.3105000000000000 N
   0.6080000000000000    0.4100000000000000    0.3060000000000000 N
   0.7690000000000000    0.7645000000000000    0.4450000000000000 N
   0.8085000000000000    0.8045000000000000    0.3900000000000000 N
   0.8465000000000000    0.8500000000000000    0.3360000000000000 N
   0.0410000000000000    0.9785000000000000    0.5530000000000000 N
   0.0940000000000000    0.9465000000000000    0.5605000000000000 N
   0.1420000000000000    0.9100000000000000    0.5560000000000000 N
   0.9810000000000000    0.2645000000000000    0.6950000000000000 N
   0.9415000000000000    0.3045000000000000    0.6400000000000000 N
   0.9035000000000000    0.3500000000000000    0.5860000000000000 N
   0.4590000000000000    0.5215000000000000    0.8030000000000000 N
   0.4060000000000000    0.5535000000000000    0.8105000000000000 N
   0.3580000000000000    0.5900000000000000    0.8060000000000000 N
   0.5190000000000000    0.2355000000000000    0.9450000000000000 N
   0.5585000000000000    0.1955000000000000    0.8900000000000000 N
   0.5965000000000000    0.1500000000000000    0.8360000000000000 N
   0.2910000000000000    0.5215000000000000    0.5530000000000000 N
   0.3440000000000000    0.5535000000000000    0.5605000000000000 N
   0.3920000000000000    0.5900000000000000    0.5560000000000000 N
   0.2310000000000000    0.2355000000000000    0.6950000000000000 N
   0.1915000000000000    0.1955000000000000    0.6400000000000000 N
   0.1535000000000000    0.1500000000000000    0.5860000000000000 N
   0.2090000000000000    0.9785000000000000    0.8030000000000000 N
   0.1560000000000000    0.9465000000000000    0.8105000000000000 N
   0.1080000000000000    0.9100000000000000    0.8060000000000000 N
   0.2690000000000000    0.2645000000000000    0.9450000000000000 N
   0.3085000000000000    0.3045000000000000    0.8900000000000000 N
   0.3465000000000000    0.3500000000000000    0.8360000000000000 N
   0.5410000000000000    0.9785000000000000    0.5530000000000000 N
   0.5940000000000000    0.9465000000000000    0.5605000000000000 N
   0.6420000000000000    0.9100000000000000    0.5560000000000000 N
   0.4810000000000000    0.2645000000000000    0.6950000000000000 N
   0.4415000000000000    0.3045000000000000    0.6400000000000000 N
   0.4035000000000000    0.3500000000000000    0.5860000000000000 N
   0.9590000000000000    0.5215000000000000    0.8030000000000000 N
   0.9060000000000000    0.5535000000000000    0.8105000000000000 N
   0.8580000000000000    0.5900000000000000    0.8060000000000000 N
   0.0189999999999999    0.2355000000000000    0.9450000000000000 N
   0.0585000000000000    0.1955000000000000    0.8900000000000000 N
   0.0965000000000000    0.1500000000000000    0.8360000000000000 N
   0.7910000000000000    0.5215000000000000    0.5530000000000000 N
   0.8440000000000000    0.5535000000000000    0.5605000000000000 N
   0.8920000000000000    0.5900000000000000    0.5560000000000000 N
   0.7310000000000000    0.2355000000000000    0.6950000000000000 N
   0.6915000000000000    0.1955000000000000    0.6400000000000000 N
   0.6535000000000000    0.1500000000000000    0.5860000000000000 N
   0.7090000000000000    0.9785000000000000    0.8030000000000000 N
   0.6560000000000000    0.9465000000000000    0.8105000000000000 N
   0.6080000000000000    0.9100000000000000    0.8060000000000000 N
   0.7690000000000000    0.2645000000000000    0.9450000000000000 N
   0.8085000000000000    0.3045000000000000    0.8900000000000000 N
   0.8465000000000000    0.3500000000000000    0.8360000000000000 N
   0.0410000000000000    0.4785000000000000    0.5530000000000000 N
   0.0940000000000000    0.4465000000000000    0.5605000000000000 N
   0.1420000000000000    0.4100000000000000    0.5560000000000000 N
   0.9810000000000000    0.7645000000000000    0.6950000000000000 N
   0.9415000000000000    0.8045000000000000    0.6400000000000000 N
   0.9035000000000000    0.8500000000000000    0.5860000000000000 N
   0.4590000000000000    0.0215000000000001    0.8030000000000000 N
   0.4060000000000000    0.0535000000000001    0.8105000000000000 N
   0.3580000000000000    0.0900000000000001    0.8060000000000000 N
   0.5190000000000000    0.7355000000000000    0.9450000000000000 N
   0.5585000000000000    0.6955000000000000    0.8900000000000000 N
   0.5965000000000000    0.6500000000000000    0.8360000000000000 N
   0.2910000000000000    0.0215000000000001    0.5530000000000000 N
   0.3440000000000000    0.0535000000000001    0.5605000000000000 N
   0.3920000000000000    0.0900000000000001    0.5560000000000000 N
   0.2310000000000000    0.7355000000000000    0.6950000000000000 N
   0.1915000000000000    0.6955000000000000    0.6400000000000000 N
   0.1535000000000000    0.6500000000000000    0.5860000000000000 N
   0.2090000000000000    0.4785000000000000    0.8030000000000000 N
   0.1560000000000000    0.4465000000000000    0.8105000000000000 N
   0.1080000000000000    0.4100000000000000    0.8060000000000000 N
   0.2690000000000000    0.7645000000000000    0.9450000000000000 N
   0.3085000000000000    0.8045000000000000    0.8900000000000000 N
   0.3465000000000000    0.8500000000000000    0.8360000000000000 N
   0.5410000000000000    0.4785000000000000    0.5530000000000000 N
   0.5940000000000000    0.4465000000000000    0.5605000000000000 N
   0.6420000000000000    0.4100000000000000    0.5560000000000000 N
   0.4810000000000000    0.7645000000000000    0.6950000000000000 N
   0.4415000000000000    0.8045000000000000    0.6400000000000000 N
   0.4035000000000000    0.8500000000000000    0.5860000000000000 N
   0.9590000000000000    0.0215000000000001    0.8030000000000000 N
   0.9060000000000000    0.0535000000000001    0.8105000000000000 N
   0.8580000000000000    0.0900000000000001    0.8060000000000000 N
   0.0189999999999999    0.7355000000000000    0.9450000000000000 N
   0.0585000000000000    0.6955000000000000    0.8900000000000000 N
   0.0965000000000000    0.6500000000000000    0.8360000000000000 N
   0.7910000000000000    0.0215000000000001    0.5530000000000000 N
   0.8440000000000000    0.0535000000000001    0.5605000000000000 N
   0.8920000000000000    0.0900000000000001    0.5560000000000000 N
   0.7310000000000000    0.7355000000000000    0.6950000000000000 N
   0.6915000000000000    0.6955000000000000    0.6400000000000000 N
   0.6535000000000000    0.6500000000000000    0.5860000000000000 N
   0.7090000000000000    0.4785000000000000    0.8030000000000000 N
   0.6560000000000000    0.4465000000000000    0.8105000000000000 N
   0.6080000000000000    0.4100000000000000    0.8060000000000000 N
   0.7690000000000000    0.7645000000000000    0.9450000000000000 N
   0.8085000000000000    0.8045000000000000    0.8900000000000000 N
   0.8465000000000000    0.8500000000000000    0.8360000000000000 N
