Na8 H112 C48 N16 Cl24 O96
1.0
  14.1537000000000006    0.0000000000000000    0.0000000000000009
  -0.0000000000000009   14.1537000000000006    0.0000000000000009
   0.0000000000000000    0.0000000000000000   14.1537000000000006
Na H C N Cl O
8 112 48 16 24 96
direct
   0.5000000000000000    0.5000000000000000    0.0000000000000000 Na
   0.0000000000000000    0.5000000000000000    0.5000000000000000 Na
   0.5000000000000000    0.0000000000000000    0.5000000000000000 Na
   0.0000000000000000    0.0000000000000000    0.0000000000000000 Na
   0.5000000000000000    0.0000000000000000    0.0000000000000000 Na
   0.0000000000000000    0.0000000000000000    0.5000000000000000 Na
   0.5000000000000000    0.5000000000000000    0.5000000000000000 Na
   0.0000000000000000    0.5000000000000000    0.0000000000000000 Na
   0.6306000000000000    0.3270000000000000    0.3228000000000000 H
   0.8694000000000000    0.6730000000000000    0.8228000000000000 H
   0.3694000000000000    0.8270000000000000    0.1772000000000000 H
   0.1306000000000000    0.1730000000000000    0.6772000000000000 H
   0.3228000000000000    0.6306000000000000    0.3270000000000000 H
   0.8228000000000000    0.8694000000000000    0.6730000000000000 H
   0.1772000000000000    0.3694000000000000    0.8270000000000000 H
   0.6772000000000000    0.1306000000000000    0.1730000000000000 H
   0.3270000000000000    0.3228000000000000    0.6306000000000000 H
   0.6730000000000000    0.8228000000000000    0.8694000000000000 H
   0.8270000000000000    0.1772000000000000    0.3694000000000000 H
   0.1730000000000000    0.6772000000000000    0.1306000000000000 H
   0.3694000000000000    0.6730000000000000    0.6772000000000000 H
   0.1306000000000000    0.3270000000000000    0.1772000000000000 H
   0.6306000000000000    0.1730000000000000    0.8228000000000000 H
   0.8694000000000000    0.8270000000000000    0.3228000000000000 H
   0.6772000000000000    0.3694000000000000    0.6730000000000000 H
   0.1772000000000000    0.1306000000000000    0.3270000000000000 H
   0.8228000000000000    0.6306000000000000    0.1730000000000000 H
   0.3228000000000000    0.8694000000000000    0.8270000000000000 H
   0.6730000000000000    0.6772000000000000    0.3694000000000000 H
   0.3270000000000000    0.1772000000000000    0.1306000000000000 H
   0.1730000000000000    0.8228000000000000    0.6306000000000000 H
   0.8270000000000000    0.3228000000000000    0.8694000000000000 H
   0.6042000000000001    0.2830000000000000    0.2228000000000000 H
   0.8957999999999999    0.7170000000000001    0.7228000000000000 H
   0.3958000000000000    0.7829999999999999    0.2772000000000000 H
   0.1042000000000000    0.2170000000000000    0.7772000000000000 H
   0.2228000000000000    0.6042000000000001    0.2830000000000000 H
   0.7228000000000000    0.8957999999999999    0.7170000000000001 H
   0.2772000000000000    0.3958000000000000    0.7829999999999999 H
   0.7772000000000000    0.1042000000000000    0.2170000000000000 H
   0.2830000000000000    0.2228000000000000    0.6042000000000001 H
   0.7170000000000001    0.7228000000000000    0.8957999999999999 H
   0.7829999999999999    0.2772000000000000    0.3958000000000000 H
   0.2170000000000000    0.7772000000000000    0.1042000000000000 H
   0.3958000000000000    0.7170000000000001    0.7772000000000000 H
   0.1042000000000000    0.2830000000000000    0.2772000000000000 H
   0.6042000000000001    0.2170000000000000    0.7228000000000000 H
   0.8957999999999999    0.7829999999999999    0.2228000000000000 H
   0.7772000000000000    0.3958000000000000    0.7170000000000001 H
   0.2772000000000000    0.1042000000000000    0.2830000000000000 H
   0.7228000000000000    0.6042000000000001    0.2170000000000000 H
   0.2228000000000000    0.8957999999999999    0.7829999999999999 H
   0.7170000000000001    0.7772000000000000    0.3958000000000000 H
   0.2830000000000000    0.2772000000000000    0.1042000000000000 H
   0.2170000000000000    0.7228000000000000    0.6042000000000001 H
   0.7829999999999999    0.2228000000000000    0.8957999999999999 H
   0.6955000000000000    0.3942000000000000    0.1619000000000000 H
   0.8045000000000000    0.6058000000000000    0.6618999999999999 H
   0.3045000000000000    0.8942000000000000    0.3381000000000000 H
   0.1955000000000000    0.1058000000000000    0.8381000000000001 H
   0.1619000000000000    0.6955000000000000    0.3942000000000000 H
   0.6618999999999999    0.8045000000000000    0.6058000000000000 H
   0.3381000000000000    0.3045000000000000    0.8942000000000000 H
   0.8381000000000001    0.1955000000000000    0.1058000000000000 H
   0.3942000000000000    0.1619000000000000    0.6955000000000000 H
   0.6058000000000000    0.6618999999999999    0.8045000000000000 H
   0.8942000000000000    0.3381000000000000    0.3045000000000000 H
   0.1058000000000000    0.8381000000000001    0.1955000000000000 H
   0.3045000000000000    0.6058000000000000    0.8381000000000001 H
   0.1955000000000000    0.3942000000000000    0.3381000000000000 H
   0.6955000000000000    0.1058000000000000    0.6618999999999999 H
   0.8045000000000000    0.8942000000000000    0.1619000000000000 H
   0.8381000000000001    0.3045000000000000    0.6058000000000000 H
   0.3381000000000000    0.1955000000000000    0.3942000000000000 H
   0.6618999999999999    0.6955000000000000    0.1058000000000000 H
   0.1619000000000000    0.8045000000000000    0.8942000000000000 H
   0.6058000000000000    0.8381000000000001    0.3045000000000000 H
   0.3942000000000000    0.3381000000000000    0.1955000000000000 H
   0.1058000000000000    0.6618999999999999    0.6955000000000000 H
   0.8942000000000000    0.1619000000000000    0.8045000000000000 H
   0.7429000000000000    0.4165000000000000    0.2613000000000000 H
   0.7571000000000000    0.5835000000000000    0.7613000000000000 H
   0.2571000000000000    0.9165000000000000    0.2387000000000000 H
   0.2429000000000000    0.0835000000000000    0.7387000000000000 H
   0.2613000000000000    0.7429000000000000    0.4165000000000000 H
   0.7613000000000000    0.7571000000000000    0.5835000000000000 H
   0.2387000000000000    0.2571000000000000    0.9165000000000000 H
   0.7387000000000000    0.2429000000000000    0.0835000000000000 H
   0.4165000000000000    0.2613000000000000    0.7429000000000000 H
   0.5835000000000000    0.7613000000000000    0.7571000000000000 H
   0.9165000000000000    0.2387000000000000    0.2571000000000000 H
   0.0835000000000000    0.7387000000000000    0.2429000000000000 H
   0.2571000000000000    0.5835000000000000    0.7387000000000000 H
   0.2429000000000000    0.4165000000000000    0.2387000000000000 H
   0.7429000000000000    0.0835000000000000    0.7613000000000000 H
   0.7571000000000000    0.9165000000000000    0.2613000000000000 H
   0.7387000000000000    0.2571000000000000    0.5835000000000000 H
   0.2387000000000000    0.2429000000000000    0.4165000000000000 H
   0.7613000000000000    0.7429000000000000    0.0835000000000000 H
   0.2613000000000000    0.7571000000000000    0.9165000000000000 H
   0.5835000000000000    0.7387000000000000    0.2571000000000000 H
   0.4165000000000000    0.2387000000000000    0.2429000000000000 H
   0.0835000000000000    0.7613000000000000    0.7429000000000000 H
   0.9165000000000000    0.2613000000000000    0.7571000000000000 H
   0.6692000000000000    0.1692000000000000    0.3308000000000000 H
   0.8308000000000000    0.8308000000000000    0.8308000000000000 H
   0.3308000000000000    0.6692000000000000    0.1692000000000000 H
   0.1692000000000000    0.3308000000000000    0.6692000000000000 H
   0.3308000000000000    0.8308000000000000    0.6692000000000000 H
   0.1692000000000000    0.1692000000000000    0.1692000000000000 H
   0.6692000000000000    0.3308000000000000    0.8308000000000000 H
   0.8308000000000000    0.6692000000000000    0.3308000000000000 H
   0.8515000000000000    0.3515000000000000    0.1485000000000000 H
   0.6485000000000000    0.6485000000000001    0.6485000000000000 H
   0.1485000000000000    0.8514999999999999    0.3515000000000000 H
   0.3515000000000000    0.1485000000000000    0.8515000000000000 H
   0.1485000000000000    0.6485000000000001    0.8515000000000000 H
   0.3515000000000000    0.3515000000000000    0.3515000000000000 H
   0.8515000000000000    0.1485000000000000    0.6485000000000000 H
   0.6485000000000000    0.8514999999999999    0.1485000000000000 H
   0.6566100000000000    0.2979400000000000    0.2655500000000000 C
   0.8433900000000000    0.7020600000000000    0.7655500000000000 C
   0.3433900000000000    0.7979400000000000    0.2344500000000000 C
   0.1566100000000000    0.2020600000000000    0.7344500000000000 C
   0.2655500000000000    0.6566100000000000    0.2979400000000000 C
   0.7655500000000000    0.8433900000000000    0.7020600000000000 C
   0.2344500000000000    0.3433900000000000    0.7979400000000000 C
   0.7344500000000000    0.1566100000000000    0.2020600000000000 C
   0.2979400000000000    0.2655500000000000    0.6566100000000000 C
   0.7020600000000000    0.7655500000000000    0.8433900000000000 C
   0.7979400000000000    0.2344500000000000    0.3433900000000000 C
   0.2020600000000000    0.7344500000000000    0.1566100000000000 C
   0.3433900000000000    0.7020600000000000    0.7344500000000000 C
   0.1566100000000000    0.2979400000000000    0.2344500000000000 C
   0.6566100000000000    0.2020600000000000    0.7655500000000000 C
   0.8433900000000000    0.7979400000000000    0.2655500000000000 C
   0.7344500000000000    0.3433900000000000    0.7020600000000000 C
   0.2344500000000000    0.1566100000000000    0.2979400000000000 C
   0.7655500000000000    0.6566100000000000    0.2020600000000000 C
   0.2655500000000000    0.8433900000000000    0.7979400000000000 C
   0.7020600000000000    0.7344500000000000    0.3433900000000000 C
   0.2979400000000000    0.2344500000000000    0.1566100000000000 C
   0.2020600000000000    0.7655500000000000    0.6566100000000000 C
   0.7979400000000000    0.2655500000000000    0.8433900000000000 C
   0.7252799999999999    0.3657800000000000    0.2175800000000000 C
   0.7747200000000001    0.6342200000000000    0.7175800000000000 C
   0.2747200000000000    0.8657800000000000    0.2824200000000000 C
   0.2252800000000000    0.1342200000000000    0.7824200000000000 C
   0.2175800000000000    0.7252799999999999    0.3657800000000000 C
   0.7175800000000000    0.7747200000000001    0.6342200000000000 C
   0.2824200000000000    0.2747200000000000    0.8657800000000000 C
   0.7824200000000000    0.2252800000000000    0.1342200000000000 C
   0.3657800000000000    0.2175800000000000    0.7252799999999999 C
   0.6342200000000000    0.7175800000000000    0.7747200000000001 C
   0.8657800000000000    0.2824200000000000    0.2747200000000000 C
   0.1342200000000000    0.7824200000000000    0.2252800000000000 C
   0.2747200000000000    0.6342200000000000    0.7824200000000000 C
   0.2252800000000000    0.3657800000000000    0.2824200000000000 C
   0.7252799999999999    0.1342200000000000    0.7175800000000000 C
   0.7747200000000001    0.8657800000000000    0.2175800000000000 C
   0.7824200000000000    0.2747200000000000    0.6342200000000000 C
   0.2824200000000000    0.2252800000000000    0.3657800000000000 C
   0.7175800000000000    0.7252799999999999    0.1342200000000000 C
   0.2175800000000000    0.7747200000000001    0.8657800000000000 C
   0.6342200000000000    0.7824200000000000    0.2747200000000000 C
   0.3657800000000000    0.2824200000000000    0.2252800000000000 C
   0.1342200000000000    0.7175800000000000    0.7252799999999999 C
   0.8657800000000000    0.2175800000000000    0.7747200000000001 C
   0.7096100000000001    0.2096100000000000    0.2903900000000000 N
   0.7903899999999999    0.7903900000000000    0.7903899999999999 N
   0.2903900000000000    0.7096100000000000    0.2096100000000000 N
   0.2096100000000000    0.2903900000000000    0.7096100000000001 N
   0.2903900000000000    0.7903900000000000    0.7096100000000001 N
   0.2096100000000000    0.2096100000000000    0.2096100000000000 N
   0.7096100000000001    0.2903900000000000    0.7903899999999999 N
   0.7903899999999999    0.7096100000000000    0.2903900000000000 N
   0.8111400000000000    0.3111400000000000    0.1888600000000000 N
   0.6888600000000000    0.6888600000000000    0.6888600000000000 N
   0.1888600000000000    0.8111400000000000    0.3111400000000000 N
   0.3111400000000000    0.1888600000000000    0.8111400000000000 N
   0.1888600000000000    0.6888600000000000    0.8111400000000000 N
   0.3111400000000000    0.3111400000000000    0.3111400000000000 N
   0.8111400000000000    0.1888600000000000    0.6888600000000000 N
   0.6888600000000000    0.8111400000000000    0.1888600000000000 N
   0.5208999999999999    0.2500100000000000    0.9994100000000000 Cl
   0.9791000000000001    0.7499899999999999    0.4994100000000000 Cl
   0.4791000000000000    0.7500100000000001    0.5005900000000000 Cl
   0.0209000000000000    0.2499900000000000    0.0005900000000000 Cl
   0.9994100000000000    0.5208999999999999    0.2500100000000000 Cl
   0.4994100000000000    0.9791000000000001    0.7499899999999999 Cl
   0.5005900000000000    0.4791000000000000    0.7500100000000001 Cl
   0.0005900000000000    0.0209000000000000    0.2499900000000000 Cl
   0.2500100000000000    0.9994100000000000    0.5208999999999999 Cl
   0.7499899999999999    0.4994100000000000    0.9791000000000001 Cl
   0.7500100000000001    0.5005900000000000    0.4791000000000000 Cl
   0.2499900000000000    0.0005900000000000    0.0209000000000000 Cl
   0.4791000000000000    0.7499899999999999    0.0005900000000000 Cl
   0.0209000000000000    0.2500100000000000    0.5005900000000000 Cl
   0.5208999999999999    0.2499900000000000    0.4994100000000000 Cl
   0.9791000000000001    0.7500100000000001    0.9994100000000000 Cl
   0.0005900000000000    0.4791000000000000    0.7499899999999999 Cl
   0.5005900000000000    0.0209000000000000    0.2500100000000000 Cl
   0.4994100000000000    0.5208999999999999    0.2499900000000000 Cl
   0.9994100000000000    0.9791000000000001    0.7500100000000001 Cl
   0.7499899999999999    0.0005900000000000    0.4791000000000000 Cl
   0.2500100000000000    0.5005900000000000    0.0209000000000000 Cl
   0.2499900000000000    0.4994100000000000    0.5208999999999999 Cl
   0.7500100000000001    0.9994100000000000    0.9791000000000001 Cl
   0.6119399999999999    0.2880200000000000    0.9749099999999999 O
   0.8880600000000001    0.7119800000000001    0.4749100000000000 O
   0.3880600000000000    0.7880199999999999    0.5250900000000001 O
   0.1119400000000000    0.2119800000000000    0.0250900000000000 O
   0.9749099999999999    0.6119399999999999    0.2880200000000000 O
   0.4749100000000000    0.8880600000000001    0.7119800000000001 O
   0.5250900000000001    0.3880600000000000    0.7880199999999999 O
   0.0250900000000000    0.1119400000000000    0.2119800000000000 O
   0.2880200000000000    0.9749099999999999    0.6119399999999999 O
   0.7119800000000001    0.4749100000000000    0.8880600000000001 O
   0.7880199999999999    0.5250900000000001    0.3880600000000000 O
   0.2119800000000000    0.0250900000000000    0.1119400000000000 O
   0.3880600000000000    0.7119800000000001    0.0250900000000000 O
   0.1119400000000000    0.2880200000000000    0.5250900000000001 O
   0.6119399999999999    0.2119800000000000    0.4749100000000000 O
   0.8880600000000001    0.7880199999999999    0.9749099999999999 O
   0.0250900000000000    0.3880600000000000    0.7119800000000001 O
   0.5250900000000001    0.1119400000000000    0.2880200000000000 O
   0.4749100000000000    0.6119399999999999    0.2119800000000000 O
   0.9749099999999999    0.8880600000000001    0.7880199999999999 O
   0.7119800000000001    0.0250900000000000    0.3880600000000000 O
   0.2880200000000000    0.5250900000000001    0.1119400000000000 O
   0.2119800000000000    0.4749100000000000    0.6119399999999999 O
   0.7880199999999999    0.9749099999999999    0.8880600000000001 O
   0.4545200000000000    0.3261400000000000    0.0108500000000000 O
   0.0454800000000000    0.6738600000000000    0.5108500000000000 O
   0.5454800000000000    0.8261400000000000    0.4891500000000000 O
   0.9545200000000000    0.1738600000000000    0.9891500000000000 O
   0.0108500000000000    0.4545200000000000    0.3261400000000000 O
   0.5108500000000000    0.0454800000000000    0.6738600000000000 O
   0.4891500000000000    0.5454800000000000    0.8261400000000000 O
   0.9891500000000000    0.9545200000000000    0.1738600000000000 O
   0.3261400000000000    0.0108500000000000    0.4545200000000000 O
   0.6738600000000000    0.5108500000000000    0.0454800000000000 O
   0.8261400000000000    0.4891500000000000    0.5454800000000000 O
   0.1738600000000000    0.9891500000000000    0.9545200000000000 O
   0.5454800000000000    0.6738600000000000    0.9891500000000000 O
   0.9545200000000000    0.3261400000000000    0.4891500000000000 O
   0.4545200000000000    0.1738600000000000    0.5108500000000000 O
   0.0454800000000000    0.8261400000000000    0.0108500000000000 O
   0.9891500000000000    0.5454800000000000    0.6738600000000000 O
   0.4891500000000000    0.9545200000000000    0.3261400000000000 O
   0.5108500000000000    0.4545200000000000    0.1738600000000000 O
   0.0108500000000000    0.0454800000000000    0.8261400000000000 O
   0.6738600000000000    0.9891500000000000    0.5454800000000000 O
   0.3261400000000000    0.4891500000000000    0.9545200000000000 O
   0.1738600000000000    0.5108500000000000    0.4545200000000000 O
   0.8261400000000000    0.0108500000000000    0.0454800000000000 O
   0.5276400000000000    0.1975300000000000    0.0855600000000000 O
   0.9723600000000000    0.8024700000000000    0.5855600000000000 O
   0.4723600000000000    0.6975300000000000    0.4144400000000000 O
   0.0276400000000000    0.3024700000000000    0.9144400000000000 O
   0.0855600000000000    0.5276400000000000    0.1975300000000000 O
   0.5855600000000000    0.9723600000000000    0.8024700000000000 O
   0.4144400000000000    0.4723600000000000    0.6975300000000000 O
   0.9144400000000000    0.0276400000000000    0.3024700000000000 O
   0.1975300000000000    0.0855600000000000    0.5276400000000000 O
   0.8024700000000000    0.5855600000000000    0.9723600000000000 O
   0.6975300000000000    0.4144400000000000    0.4723600000000000 O
   0.3024700000000000    0.9144400000000000    0.0276400000000000 O
   0.4723600000000000    0.8024700000000000    0.9144400000000000 O
   0.0276400000000000    0.1975300000000000    0.4144400000000000 O
   0.5276400000000000    0.3024700000000000    0.5855600000000000 O
   0.9723600000000000    0.6975300000000000    0.0855600000000000 O
   0.9144400000000000    0.4723600000000000    0.8024700000000000 O
   0.4144400000000000    0.0276400000000000    0.1975300000000000 O
   0.5855600000000000    0.5276400000000000    0.3024700000000000 O
   0.0855600000000000    0.9723600000000000    0.6975300000000000 O
   0.8024700000000000    0.9144400000000000    0.4723600000000000 O
   0.1975300000000000    0.4144400000000000    0.0276400000000000 O
   0.3024700000000000    0.5855600000000000    0.5276400000000000 O
   0.6975300000000000    0.0855600000000000    0.9723600000000000 O
   0.4889400000000000    0.1877500000000000    0.9252899999999999 O
   0.0110600000000001    0.8122500000000000    0.4252900000000000 O
   0.5110600000000000    0.6877500000000000    0.5747100000000001 O
   0.9889400000000000    0.3122500000000000    0.0747100000000000 O
   0.9252899999999999    0.4889400000000000    0.1877500000000000 O
   0.4252900000000000    0.0110600000000001    0.8122500000000000 O
   0.5747100000000001    0.5110600000000000    0.6877500000000000 O
   0.0747100000000000    0.9889400000000000    0.3122500000000000 O
   0.1877500000000000    0.9252899999999999    0.4889400000000000 O
   0.8122500000000000    0.4252900000000000    0.0110600000000001 O
   0.6877500000000000    0.5747100000000001    0.5110600000000000 O
   0.3122500000000000    0.0747100000000000    0.9889400000000000 O
   0.5110600000000000    0.8122500000000000    0.0747100000000000 O
   0.9889400000000000    0.1877500000000000    0.5747100000000001 O
   0.4889400000000000    0.3122500000000000    0.4252900000000000 O
   0.0110600000000001    0.6877500000000000    0.9252899999999999 O
   0.0747100000000000    0.5110600000000000    0.8122500000000000 O
   0.5747100000000001    0.9889400000000000    0.1877500000000000 O
   0.4252900000000000    0.4889400000000000    0.3122500000000000 O
   0.9252899999999999    0.0110600000000001    0.6877500000000000 O
   0.8122500000000000    0.0747100000000000    0.5110600000000000 O
   0.1877500000000000    0.5747100000000001    0.9889400000000000 O
   0.3122500000000000    0.4252900000000000    0.4889400000000000 O
   0.6877500000000000    0.9252899999999999    0.0110600000000001 O
